# vtk DataFile Version 3.0
STAP++ Results
ASCII
DATASET UNSTRUCTURED_GRID
POINTS 2 float
0 0 0
1000 1000 1000
CELLS 0 0
CELL_TYPES 0
POINT_DATA 2
VECTORS Displacement float
0 0 0
-1.25512e-06 4.33009e-05 -4.6841e-05
CELL_DATA 0
SCALARS Stress float 1
LOOKUP_TABLE default
0
