# vtk DataFile Version 3.0
STAP++ Results
ASCII
DATASET UNSTRUCTURED_GRID
POINTS 17 float
0 0 0
0.625 0 0
1.25 0 0
1.875 0 0
2.5 0 0
3.125 0 0
3.75 0 0
4.375 0 0
5 0 0
5.625 0 0
6.25 0 0
6.875 0 0
7.5 0 0
8.125 0 0
8.75 0 0
9.375 0 0
10 0 0
CELLS 0 0
CELL_TYPES 0
POINT_DATA 17
VECTORS Displacement float
0 0 0
0 0 -0.000135613
0 0 -0.000532804
0 0 -0.00117413
0 0 -0.00204217
0 0 -0.00311946
0 0 -0.00438858
0 0 -0.00583208
0 0 -0.00743253
0 0 -0.00917249
0 0 -0.0110345
0 0 -0.0130012
0 0 -0.015055
0 0 -0.0171786
0 0 -0.0193545
0 0 -0.0215653
0 0 -0.0237936
CELL_DATA 0
SCALARS Stress float 1
LOOKUP_TABLE default
0
0
0
0
0
0
0
0
0
0
0
0
0
0
0
0
