# vtk DataFile Version 3.0
STAP++ Results
ASCII
DATASET UNSTRUCTURED_GRID
POINTS 129 float
0 0 0
0.078125 0 0
0.15625 0 0
0.234375 0 0
0.3125 0 0
0.390625 0 0
0.46875 0 0
0.546875 0 0
0.625 0 0
0.703125 0 0
0.78125 0 0
0.859375 0 0
0.9375 0 0
1.01562 0 0
1.09375 0 0
1.17188 0 0
1.25 0 0
1.32812 0 0
1.40625 0 0
1.48438 0 0
1.5625 0 0
1.64062 0 0
1.71875 0 0
1.79688 0 0
1.875 0 0
1.95312 0 0
2.03125 0 0
2.10938 0 0
2.1875 0 0
2.26562 0 0
2.34375 0 0
2.42188 0 0
2.5 0 0
2.57812 0 0
2.65625 0 0
2.73438 0 0
2.8125 0 0
2.89062 0 0
2.96875 0 0
3.04688 0 0
3.125 0 0
3.20312 0 0
3.28125 0 0
3.35938 0 0
3.4375 0 0
3.51562 0 0
3.59375 0 0
3.67188 0 0
3.75 0 0
3.82812 0 0
3.90625 0 0
3.98438 0 0
4.0625 0 0
4.14062 0 0
4.21875 0 0
4.29688 0 0
4.375 0 0
4.45312 0 0
4.53125 0 0
4.60938 0 0
4.6875 0 0
4.76562 0 0
4.84375 0 0
4.92188 0 0
5 0 0
5.07812 0 0
5.15625 0 0
5.23438 0 0
5.3125 0 0
5.39062 0 0
5.46875 0 0
5.54688 0 0
5.625 0 0
5.70312 0 0
5.78125 0 0
5.85938 0 0
5.9375 0 0
6.01562 0 0
6.09375 0 0
6.17188 0 0
6.25 0 0
6.32812 0 0
6.40625 0 0
6.48438 0 0
6.5625 0 0
6.64062 0 0
6.71875 0 0
6.79688 0 0
6.875 0 0
6.95312 0 0
7.03125 0 0
7.10938 0 0
7.1875 0 0
7.26562 0 0
7.34375 0 0
7.42188 0 0
7.5 0 0
7.57812 0 0
7.65625 0 0
7.73438 0 0
7.8125 0 0
7.89062 0 0
7.96875 0 0
8.04688 0 0
8.125 0 0
8.20312 0 0
8.28125 0 0
8.35938 0 0
8.4375 0 0
8.51562 0 0
8.59375 0 0
8.67188 0 0
8.75 0 0
8.82812 0 0
8.90625 0 0
8.98438 0 0
9.0625 0 0
9.14062 0 0
9.21875 0 0
9.29688 0 0
9.375 0 0
9.45312 0 0
9.53125 0 0
9.60938 0 0
9.6875 0 0
9.76562 0 0
9.84375 0 0
9.92188 0 0
10 0 0
CELLS 0 0
CELL_TYPES 0
POINT_DATA 129
VECTORS Displacement float
0 0 0
0 0 -2.22934e-06
0 0 -8.78425e-06
0 0 -1.96307e-05
0 0 -3.47345e-05
0 0 -5.40618e-05
0 0 -7.75784e-05
0 0 -0.00010525
0 0 -0.000137043
0 0 -0.000172924
0 0 -0.000212857
0 0 -0.000256809
0 0 -0.000304747
0 0 -0.000356635
0 0 -0.00041244
0 0 -0.000472128
0 0 -0.000535665
0 0 -0.000603016
0 0 -0.000674148
0 0 -0.000749027
0 0 -0.000827618
0 0 -0.000909887
0 0 -0.000995801
0 0 -0.00108533
0 0 -0.00117843
0 0 -0.00127507
0 0 -0.00137522
0 0 -0.00147884
0 0 -0.00158591
0 0 -0.00169638
0 0 -0.00181022
0 0 -0.0019274
0 0 -0.00204789
0 0 -0.00217164
0 0 -0.00229863
0 0 -0.00242882
0 0 -0.00256218
0 0 -0.00269867
0 0 -0.00283827
0 0 -0.00298092
0 0 -0.00312661
0 0 -0.0032753
0 0 -0.00342695
0 0 -0.00358152
0 0 -0.003739
0 0 -0.00389933
0 0 -0.00406249
0 0 -0.00422845
0 0 -0.00439716
0 0 -0.0045686
0 0 -0.00474272
0 0 -0.00491951
0 0 -0.00509892
0 0 -0.00528091
0 0 -0.00546546
0 0 -0.00565253
0 0 -0.00584209
0 0 -0.0060341
0 0 -0.00622853
0 0 -0.00642534
0 0 -0.0066245
0 0 -0.00682598
0 0 -0.00702974
0 0 -0.00723575
0 0 -0.00744397
0 0 -0.00765437
0 0 -0.00786692
0 0 -0.00808158
0 0 -0.00829832
0 0 -0.0085171
0 0 -0.00873789
0 0 -0.00896065
0 0 -0.00918536
0 0 -0.00941197
0 0 -0.00964046
0 0 -0.00987079
0 0 -0.0101029
0 0 -0.0103368
0 0 -0.0105725
0 0 -0.0108098
0 0 -0.0110488
0 0 -0.0112895
0 0 -0.0115317
0 0 -0.0117755
0 0 -0.0120209
0 0 -0.0122677
0 0 -0.012516
0 0 -0.0127658
0 0 -0.0130169
0 0 -0.0132694
0 0 -0.0135232
0 0 -0.0137784
0 0 -0.0140347
0 0 -0.0142923
0 0 -0.0145511
0 0 -0.0148111
0 0 -0.0150722
0 0 -0.0153344
0 0 -0.0155976
0 0 -0.0158618
0 0 -0.0161271
0 0 -0.0163933
0 0 -0.0166604
0 0 -0.0169284
0 0 -0.0171972
0 0 -0.0174669
0 0 -0.0177373
0 0 -0.0180085
0 0 -0.0182804
0 0 -0.018553
0 0 -0.0188263
0 0 -0.0191001
0 0 -0.0193746
0 0 -0.0196496
0 0 -0.019925
0 0 -0.020201
0 0 -0.0204774
0 0 -0.0207542
0 0 -0.0210314
0 0 -0.021309
0 0 -0.0215868
0 0 -0.0218649
0 0 -0.0221433
0 0 -0.0224218
0 0 -0.0227005
0 0 -0.0229794
0 0 -0.0232584
0 0 -0.0235374
0 0 -0.0238165
CELL_DATA 0
SCALARS Stress float 1
LOOKUP_TABLE default
0
0
0
0
0
0
0
0
0
0
0
0
0
0
0
0
0
0
0
0
0
0
0
0
0
0
0
0
0
0
0
0
0
0
0
0
0
0
0
0
0
0
0
0
0
0
0
0
0
0
0
0
0
0
0
0
0
0
0
0
0
0
0
0
0
0
0
0
0
0
0
0
0
0
0
0
0
0
0
0
0
0
0
0
0
0
0
0
0
0
0
0
0
0
0
0
0
0
0
0
0
0
0
0
0
0
0
0
0
0
0
0
0
0
0
0
0
0
0
0
0
0
0
0
0
0
0
0
