# vtk DataFile Version 3.0
STAP++ Results
ASCII
DATASET UNSTRUCTURED_GRID
POINTS 33 float
0 0 0
0.3125 0 0
0.625 0 0
0.9375 0 0
1.25 0 0
1.5625 0 0
1.875 0 0
2.1875 0 0
2.5 0 0
2.8125 0 0
3.125 0 0
3.4375 0 0
3.75 0 0
4.0625 0 0
4.375 0 0
4.6875 0 0
5 0 0
5.3125 0 0
5.625 0 0
5.9375 0 0
6.25 0 0
6.5625 0 0
6.875 0 0
7.1875 0 0
7.5 0 0
7.8125 0 0
8.125 0 0
8.4375 0 0
8.75 0 0
9.0625 0 0
9.375 0 0
9.6875 0 0
10 0 0
CELLS 0 0
CELL_TYPES 0
POINT_DATA 33
VECTORS Displacement float
0 0 0
0 0 -3.45642e-05
0 0 -0.000136703
0 0 -0.000304236
0 0 -0.000534984
0 0 -0.000826766
0 0 -0.0011774
0 0 -0.00158472
0 0 -0.00204652
0 0 -0.00256065
0 0 -0.00312491
0 0 -0.00373712
0 0 -0.00439512
0 0 -0.0050967
0 0 -0.00583971
0 0 -0.00662195
0 0 -0.00744125
0 0 -0.00829542
0 0 -0.00918229
0 0 -0.0100997
0 0 -0.0110454
0 0 -0.0120173
0 0 -0.0130132
0 0 -0.0140308
0 0 -0.0150681
0 0 -0.0161228
0 0 -0.0171928
0 0 -0.0182759
0 0 -0.0193698
0 0 -0.0204725
0 0 -0.0215817
0 0 -0.0226953
0 0 -0.023811
CELL_DATA 0
SCALARS Stress float 1
LOOKUP_TABLE default
0
0
0
0
0
0
0
0
0
0
0
0
0
0
0
0
0
0
0
0
0
0
0
0
0
0
0
0
0
0
0
0
