# vtk DataFile Version 3.0
STAP++ Results
ASCII
DATASET UNSTRUCTURED_GRID
POINTS 9 float
0 0 0
1.25 0 0
2.5 0 0
3.75 0 0
5 0 0
6.25 0 0
7.5 0 0
8.75 0 0
10 0 0
CELLS 0 0
CELL_TYPES 0
POINT_DATA 9
VECTORS Displacement float
0 0 0
0 0 -0.000524084
0 0 -0.00202473
0 0 -0.00436242
0 0 -0.00739765
0 0 -0.0109909
0 0 -0.0150027
0 0 -0.0192935
0 0 -0.0237238
CELL_DATA 0
SCALARS Stress float 1
LOOKUP_TABLE default
0
0
0
0
0
0
0
0
