# vtk DataFile Version 3.0
STAP++ Results
ASCII
DATASET UNSTRUCTURED_GRID
POINTS 3 float
0 0 0
5 0 0
10 0 0
CELLS 0 0
CELL_TYPES 0
POINT_DATA 3
VECTORS Displacement float
0 0 0
0 0 -0.00670011
0 0 -0.0223287
CELL_DATA 0
SCALARS Stress float 1
LOOKUP_TABLE default
0
0
