# vtk DataFile Version 3.0
STAP++ Results
ASCII
DATASET UNSTRUCTURED_GRID
POINTS 65 float
0 0 0
0.15625 0 0
0.3125 0 0
0.46875 0 0
0.625 0 0
0.78125 0 0
0.9375 0 0
1.09375 0 0
1.25 0 0
1.40625 0 0
1.5625 0 0
1.71875 0 0
1.875 0 0
2.03125 0 0
2.1875 0 0
2.34375 0 0
2.5 0 0
2.65625 0 0
2.8125 0 0
2.96875 0 0
3.125 0 0
3.28125 0 0
3.4375 0 0
3.59375 0 0
3.75 0 0
3.90625 0 0
4.0625 0 0
4.21875 0 0
4.375 0 0
4.53125 0 0
4.6875 0 0
4.84375 0 0
5 0 0
5.15625 0 0
5.3125 0 0
5.46875 0 0
5.625 0 0
5.78125 0 0
5.9375 0 0
6.09375 0 0
6.25 0 0
6.40625 0 0
6.5625 0 0
6.71875 0 0
6.875 0 0
7.03125 0 0
7.1875 0 0
7.34375 0 0
7.5 0 0
7.65625 0 0
7.8125 0 0
7.96875 0 0
8.125 0 0
8.28125 0 0
8.4375 0 0
8.59375 0 0
8.75 0 0
8.90625 0 0
9.0625 0 0
9.21875 0 0
9.375 0 0
9.53125 0 0
9.6875 0 0
9.84375 0 0
10 0 0
CELLS 0 0
CELL_TYPES 0
POINT_DATA 65
VECTORS Displacement float
0 0 0
0 0 -8.76722e-06
0 0 -3.47005e-05
0 0 -7.75273e-05
0 0 -0.000136975
0 0 -0.000212772
0 0 -0.000304645
0 0 -0.000412321
0 0 -0.000535528
0 0 -0.000673995
0 0 -0.000827447
0 0 -0.000995614
0 0 -0.00117822
0 0 -0.001375
0 0 -0.00158567
0 0 -0.00180997
0 0 -0.00204761
0 0 -0.00229834
0 0 -0.00256187
0 0 -0.00283794
0 0 -0.00312627
0 0 -0.00342659
0 0 -0.00373862
0 0 -0.0040621
0 0 -0.00439675
0 0 -0.0047423
0 0 -0.00509847
0 0 -0.005465
0 0 -0.00584161
0 0 -0.00622804
0 0 -0.00662399
0 0 -0.00702921
0 0 -0.00744343
0 0 -0.00786636
0 0 -0.00829774
0 0 -0.00873729
0 0 -0.00918475
0 0 -0.00963983
0 0 -0.0101023
0 0 -0.0105718
0 0 -0.0110481
0 0 -0.011531
0 0 -0.0120202
0 0 -0.0125153
0 0 -0.0130162
0 0 -0.0135225
0 0 -0.014034
0 0 -0.0145503
0 0 -0.0150714
0 0 -0.0155968
0 0 -0.0161262
0 0 -0.0166595
0 0 -0.0171963
0 0 -0.0177364
0 0 -0.0182795
0 0 -0.0188253
0 0 -0.0193736
0 0 -0.0199241
0 0 -0.0204764
0 0 -0.0210304
0 0 -0.0215858
0 0 -0.0221422
0 0 -0.0226995
0 0 -0.0232573
0 0 -0.0238154
CELL_DATA 0
SCALARS Stress float 1
LOOKUP_TABLE default
0
0
0
0
0
0
0
0
0
0
0
0
0
0
0
0
0
0
0
0
0
0
0
0
0
0
0
0
0
0
0
0
0
0
0
0
0
0
0
0
0
0
0
0
0
0
0
0
0
0
0
0
0
0
0
0
0
0
0
0
0
0
0
0
