# vtk DataFile Version 3.0
STAP++ Results
ASCII
DATASET UNSTRUCTURED_GRID
POINTS 81 float
0 0 0
1 0 0
2 0 0
3 0 0
4 0 0
5 0 0
6 0 0
7 0 0
8 0 0
0 1 0
1 1 0
2 1 0
3 1 0
4 1 0
5 1 0
6 1 0
7 1 0
8 1 0
0 2 0
1 2 0
2 2 0
3 2 0
4 2 0
5 2 0
6 2 0
7 2 0
8 2 0
0 3 0
1 3 0
2 3 0
3 3 0
4 3 0
5 3 0
6 3 0
7 3 0
8 3 0
0 4 0
1 4 0
2 4 0
3 4 0
4 4 0
5 4 0
6 4 0
7 4 0
8 4 0
0 5 0
1 5 0
2 5 0
3 5 0
4 5 0
5 5 0
6 5 0
7 5 0
8 5 0
0 6 0
1 6 0
2 6 0
3 6 0
4 6 0
5 6 0
6 6 0
7 6 0
8 6 0
0 7 0
1 7 0
2 7 0
3 7 0
4 7 0
5 7 0
6 7 0
7 7 0
8 7 0
0 8 0
1 8 0
2 8 0
3 8 0
4 8 0
5 8 0
6 8 0
7 8 0
8 8 0
CELLS 64 320
4 0 1 10 9
4 1 2 11 10
4 2 3 12 11
4 3 4 13 12
4 4 5 14 13
4 5 6 15 14
4 6 7 16 15
4 7 8 17 16
4 9 10 19 18
4 10 11 20 19
4 11 12 21 20
4 12 13 22 21
4 13 14 23 22
4 14 15 24 23
4 15 16 25 24
4 16 17 26 25
4 18 19 28 27
4 19 20 29 28
4 20 21 30 29
4 21 22 31 30
4 22 23 32 31
4 23 24 33 32
4 24 25 34 33
4 25 26 35 34
4 27 28 37 36
4 28 29 38 37
4 29 30 39 38
4 30 31 40 39
4 31 32 41 40
4 32 33 42 41
4 33 34 43 42
4 34 35 44 43
4 36 37 46 45
4 37 38 47 46
4 38 39 48 47
4 39 40 49 48
4 40 41 50 49
4 41 42 51 50
4 42 43 52 51
4 43 44 53 52
4 45 46 55 54
4 46 47 56 55
4 47 48 57 56
4 48 49 58 57
4 49 50 59 58
4 50 51 60 59
4 51 52 61 60
4 52 53 62 61
4 54 55 64 63
4 55 56 65 64
4 56 57 66 65
4 57 58 67 66
4 58 59 68 67
4 59 60 69 68
4 60 61 70 69
4 61 62 71 70
4 63 64 73 72
4 64 65 74 73
4 65 66 75 74
4 66 67 76 75
4 67 68 77 76
4 68 69 78 77
4 69 70 79 78
4 70 71 80 79
CELL_TYPES 64
9
9
9
9
9
9
9
9
9
9
9
9
9
9
9
9
9
9
9
9
9
9
9
9
9
9
9
9
9
9
9
9
9
9
9
9
9
9
9
9
9
9
9
9
9
9
9
9
9
9
9
9
9
9
9
9
9
9
9
9
9
9
9
9
POINT_DATA 81
VECTORS Displacement float
0 0 0
0 0 0
0 0 0
0 0 0
0 0 0
0 0 0
0 0 0
0 0 0
0 0 0
0 0 0
0 0 -1.07451e-05
0 0 -3.20036e-05
0 0 -4.82816e-05
0 0 -5.40465e-05
0 0 -4.82818e-05
0 0 -3.20037e-05
0 0 -1.07452e-05
0 0 0
0 0 0
0 0 -3.20036e-05
0 0 -9.54893e-05
0 0 -0.000144774
0 0 -0.000162575
0 0 -0.000144775
0 0 -9.54897e-05
0 0 -3.20038e-05
0 0 0
0 0 0
0 0 -4.82817e-05
0 0 -0.000144774
0 0 -0.000220686
0 0 -0.000248383
0 0 -0.000220686
0 0 -0.000144775
0 0 -4.82819e-05
0 0 0
0 0 0
0 0 -5.40467e-05
0 0 -0.000162575
0 0 -0.000248383
0 0 -0.000279707
0 0 -0.000248383
0 0 -0.000162575
0 0 -5.40467e-05
0 0 0
0 0 0
0 0 -4.82819e-05
0 0 -0.000144775
0 0 -0.000220686
0 0 -0.000248383
0 0 -0.000220686
0 0 -0.000144774
0 0 -4.82817e-05
0 0 0
0 0 0
0 0 -3.20038e-05
0 0 -9.54897e-05
0 0 -0.000144775
0 0 -0.000162575
0 0 -0.000144774
0 0 -9.54893e-05
0 0 -3.20036e-05
0 0 0
0 0 0
0 0 -1.07452e-05
0 0 -3.20037e-05
0 0 -4.82818e-05
0 0 -5.40465e-05
0 0 -4.82816e-05
0 0 -3.20036e-05
0 0 -1.07451e-05
0 0 0
0 0 0
0 0 0
0 0 0
0 0 0
0 0 0
0 0 0
0 0 0
0 0 0
0 0 0
CELL_DATA 64
SCALARS Stress float 1
LOOKUP_TABLE default
0
0
0
0
0
0
0
0
0.137769
-0.121015
-0.176428
-0.137252
-0.0739346
0.00246463
0.112537
0.255859
0.528295
-0.124672
-0.342526
-0.360452
-0.291564
-0.15867
0.105744
0.643844
0.852548
-0.0673139
-0.430136
-0.527199
-0.487367
-0.321373
0.0649334
0.915907
0.989758
0.00809434
-0.424182
-0.57367
-0.57367
-0.424182
0.00809434
0.989758
0.915907
0.0649334
-0.321373
-0.487367
-0.527199
-0.430136
-0.0673139
0.852548
0.643844
0.105744
-0.15867
-0.291564
-0.360452
-0.342526
-0.124672
0.528295
0.255859
0.112537
0.00246463
-0.0739346
-0.137252
-0.176428
-0.121015
0.137769
