# vtk DataFile Version 3.0
STAP++ Results
ASCII
DATASET UNSTRUCTURED_GRID
POINTS 4107 float
200 -10 0
200 10 0
150 10 0
150 -10 0
100 10 0
100 -10 0
50 10 0
50 -10 0
0 10 0
0 -10 0
-50 10 0
-50 -10 0
-100 10 0
-100 -10 0
-150 10 0
-150 -10 0
-200 10 0
-200 -10 0
-250 10 0
-250 -10 0
250 -10 0
250 10 0
200 -5 0
200 0 0
200 5 0
195 10 0
190 10 0
185 10 0
180 10 0
175 10 0
170 10 0
165 10 0
160 10 0
155 10 0
150 5 0
150 0 0
150 -5 0
155 -10 0
160 -10 0
165 -10 0
170 -10 0
175 -10 0
180 -10 0
185 -10 0
190 -10 0
195 -10 0
145 10 0
140 10 0
135 10 0
130 10 0
125 10 0
120 10 0
115 10 0
110 10 0
105 10 0
100 5 0
100 0 0
100 -5 0
105 -10 0
110 -10 0
115 -10 0
120 -10 0
125 -10 0
130 -10 0
135 -10 0
140 -10 0
145 -10 0
95 10 0
90 10 0
85 10 0
80 10 0
75 10 0
70 10 0
65 10 0
60 10 0
55 10 0
50 5 0
50 0 0
50 -5 0
55 -10 0
60 -10 0
65 -10 0
70 -10 0
75 -10 0
80 -10 0
85 -10 0
90 -10 0
95 -10 0
45 10 0
40 10 0
35 10 0
30 10 0
25 10 0
20 10 0
15 10 0
10 10 0
5 10 0
0 5 0
0 0 0
0 -5 0
5 -10 0
10 -10 0
15 -10 0
20 -10 0
25 -10 0
30 -10 0
35 -10 0
40 -10 0
45 -10 0
-5 10 0
-10 10 0
-15 10 0
-20 10 0
-25 10 0
-30 10 0
-35 10 0
-40 10 0
-45 10 0
-50 5 0
-50 0 0
-50 -5 0
-45 -10 0
-40 -10 0
-35 -10 0
-30 -10 0
-25 -10 0
-20 -10 0
-15 -10 0
-10 -10 0
-5 -10 0
-55 10 0
-60 10 0
-65 10 0
-70 10 0
-75 10 0
-80 10 0
-85 10 0
-90 10 0
-95 10 0
-100 5 0
-100 0 0
-100 -5 0
-95 -10 0
-90 -10 0
-85 -10 0
-80 -10 0
-75 -10 0
-70 -10 0
-65 -10 0
-60 -10 0
-55 -10 0
-105 10 0
-110 10 0
-115 10 0
-120 10 0
-125 10 0
-130 10 0
-135 10 0
-140 10 0
-145 10 0
-150 5 0
-150 0 0
-150 -5 0
-145 -10 0
-140 -10 0
-135 -10 0
-130 -10 0
-125 -10 0
-120 -10 0
-115 -10 0
-110 -10 0
-105 -10 0
-155 10 0
-160 10 0
-165 10 0
-170 10 0
-175 10 0
-180 10 0
-185 10 0
-190 10 0
-195 10 0
-200 5 0
-200 0 0
-200 -5 0
-195 -10 0
-190 -10 0
-185 -10 0
-180 -10 0
-175 -10 0
-170 -10 0
-165 -10 0
-160 -10 0
-155 -10 0
-205 10 0
-210 10 0
-215 10 0
-220 10 0
-225 10 0
-230 10 0
-235 10 0
-240 10 0
-245 10 0
-250 5 0
-250 0 0
-250 -5 0
-245 -10 0
-240 -10 0
-235 -10 0
-230 -10 0
-225 -10 0
-220 -10 0
-215 -10 0
-210 -10 0
-205 -10 0
205 -10 0
210 -10 0
215 -10 0
220 -10 0
225 -10 0
230 -10 0
235 -10 0
240 -10 0
245 -10 0
250 -5 0
250 0 0
250 5 0
245 10 0
240 10 0
235 10 0
230 10 0
225 10 0
220 10 0
215 10 0
210 10 0
205 10 0
195 -5 0
195 0 0
195 5 0
190 -5 0
190 0 0
190 5 0
185 -5 0
185 0 0
185 5 0
180 -5 0
180 0 0
180 5 0
175 -5 0
175 0 0
175 5 0
170 -5 0
170 0 0
170 5 0
165 -5 0
165 0 0
165 5 0
160 -5 0
160 0 0
160 5 0
155 -5 0
155 0 0
155 5 0
145 -5 0
145 0 0
145 5 0
140 -5 0
140 0 0
140 5 0
135 -5 0
135 0 0
135 5 0
130 -5 0
130 0 0
130 5 0
125 -5 0
125 0 0
125 5 0
120 -5 0
120 0 0
120 5 0
115 -5 0
115 0 0
115 5 0
110 -5 0
110 0 0
110 5 0
105 -5 0
105 0 0
105 5 0
95 -5 0
95 0 0
95 5 0
90 -5 0
90 0 0
90 5 0
85 -5 0
85 0 0
85 5 0
80 -5 0
80 0 0
80 5 0
75 -5 0
75 0 0
75 5 0
70 -5 0
70 0 0
70 5 0
65 -5 0
65 0 0
65 5 0
60 -5 0
60 0 0
60 5 0
55 -5 0
55 0 0
55 5 0
45 -5 0
45 0 0
45 5 0
40 -5 0
40 0 0
40 5 0
35 -5 0
35 0 0
35 5 0
30 -5 0
30 0 0
30 5 0
25 -5 0
25 0 0
25 5 0
20 -5 0
20 0 0
20 5 0
15 -5 0
15 0 0
15 5 0
10 -5 0
10 0 0
10 5 0
5 -5 0
5 0 0
5 5 0
-5 -5 0
-5 0 0
-5 5 0
-10 -5 0
-10 0 0
-10 5 0
-15 -5 0
-15 0 0
-15 5 0
-20 -5 0
-20 0 0
-20 5 0
-25 -5 0
-25 0 0
-25 5 0
-30 -5 0
-30 0 0
-30 5 0
-35 -5 0
-35 0 0
-35 5 0
-40 -5 0
-40 0 0
-40 5 0
-45 -5 0
-45 0 0
-45 5 0
-55 -5 0
-55 0 0
-55 5 0
-60 -5 0
-60 0 0
-60 5 0
-65 -5 0
-65 0 0
-65 5 0
-70 -5 0
-70 0 0
-70 5 0
-75 -5 0
-75 0 0
-75 5 0
-80 -5 0
-80 0 0
-80 5 0
-85 -5 0
-85 0 0
-85 5 0
-90 -5 0
-90 0 0
-90 5 0
-95 -5 0
-95 0 0
-95 5 0
-105 -5 0
-105 0 0
-105 5 0
-110 -5 0
-110 0 0
-110 5 0
-115 -5 0
-115 0 0
-115 5 0
-120 -5 0
-120 0 0
-120 5 0
-125 -5 0
-125 0 0
-125 5 0
-130 -5 0
-130 0 0
-130 5 0
-135 -5 0
-135 0 0
-135 5 0
-140 -5 0
-140 0 0
-140 5 0
-145 -5 0
-145 0 0
-145 5 0
-155 -5 0
-155 0 0
-155 5 0
-160 -5 0
-160 0 0
-160 5 0
-165 -5 0
-165 0 0
-165 5 0
-170 -5 0
-170 0 0
-170 5 0
-175 -5 0
-175 0 0
-175 5 0
-180 -5 0
-180 0 0
-180 5 0
-185 -5 0
-185 0 0
-185 5 0
-190 -5 0
-190 0 0
-190 5 0
-195 -5 0
-195 0 0
-195 5 0
-205 -5 0
-205 0 0
-205 5 0
-210 -5 0
-210 0 0
-210 5 0
-215 -5 0
-215 0 0
-215 5 0
-220 -5 0
-220 0 0
-220 5 0
-225 -5 0
-225 0 0
-225 5 0
-230 -5 0
-230 0 0
-230 5 0
-235 -5 0
-235 0 0
-235 5 0
-240 -5 0
-240 0 0
-240 5 0
-245 -5 0
-245 0 0
-245 5 0
205 5 0
205 0 0
205 -5 0
210 5 0
210 0 0
210 -5 0
215 5 0
215 0 0
215 -5 0
220 5 0
220 0 0
220 -5 0
225 5 0
225 0 0
225 -5 0
230 5 0
230 0 0
230 -5 0
235 5 0
235 0 0
235 -5 0
240 5 0
240 0 0
240 -5 0
245 5 0
245 0 0
245 -5 0
132.985 -11.8798 97.9078
131.917 -13.1754 107.766
131.915 -33.0049 105.159
132.982 -31.7092 95.3013
-66.939 -10.3645 86.5953
-66.9404 -20.2792 85.2921
-65.8726 -18.9836 75.434
-65.8712 -9.06888 76.7373
132.988 7.94962 100.514
131.92 6.65398 110.372
-65.8698 0.845839 78.0405
-66.9376 -0.449794 87.8985
132.451 -12.5276 102.837
131.917 -19.7853 106.897
131.916 -26.3951 106.028
132.449 -32.3571 100.23
132.983 -25.0994 96.1702
132.984 -18.4896 97.039
-66.4051 -9.71669 81.6663
-66.94 -16.9743 85.7265
-66.9395 -13.6694 86.1609
-66.4065 -19.6314 80.363
-65.8717 -12.3738 76.3028
-65.8722 -15.6787 75.8684
128.011 -31.3911 94.8047
123.04 -31.073 94.308
118.068 -30.7548 93.8113
113.097 -30.4367 93.3146
108.126 -30.1185 92.8179
103.154 -29.8004 92.3212
98.1828 -29.4823 91.8246
93.2115 -29.1641 91.3279
88.2401 -28.846 90.8312
83.2687 -28.5278 90.3345
78.2973 -28.2097 89.8378
73.3259 -27.8915 89.3411
68.3546 -27.5734 88.8445
63.3832 -27.2553 88.3478
58.4118 -26.9371 87.8511
53.4404 -26.619 87.3544
48.4691 -26.3008 86.8577
43.4977 -25.9827 86.361
38.5263 -25.6646 85.8644
33.5549 -25.3464 85.3677
28.5835 -25.0283 84.871
23.6122 -24.7101 84.3743
18.6408 -24.392 83.8776
13.6694 -24.0739 83.3809
8.69804 -23.7557 82.8843
3.72666 -23.4376 82.3876
-1.24472 -23.1194 81.8909
-6.21609 -22.8013 81.3942
-11.1875 -22.4831 80.8975
-16.1588 -22.165 80.4009
-21.1302 -21.8469 79.9042
-26.1016 -21.5287 79.4075
-31.073 -21.2106 78.9108
-36.0444 -20.8924 78.4141
-41.0157 -20.5743 77.9174
-45.9871 -20.2562 77.4208
-50.9585 -19.938 76.9241
-55.9299 -19.6199 76.4274
-60.9012 -19.3017 75.9307
-60.8998 -9.13915 77.2665
-55.9284 -9.20942 77.7958
-50.957 -9.2797 78.325
-45.9856 -9.34997 78.8543
-41.0142 -9.42024 79.3836
-36.0427 -9.49052 79.9128
-31.0713 -9.56079 80.4421
-26.0999 -9.63106 80.9714
-21.1285 -9.70134 81.5006
-16.1571 -9.77161 82.0299
-11.1857 -9.84188 82.5592
-6.21427 -9.91216 83.0884
-1.24285 -9.98243 83.6177
3.72856 -10.0527 84.1469
8.69997 -10.123 84.6762
13.6714 -10.1933 85.2055
18.6428 -10.2635 85.7347
23.6142 -10.3338 86.264
28.5856 -10.4041 86.7933
33.557 -10.4743 87.3225
38.5284 -10.5446 87.8518
43.4999 -10.6149 88.3811
48.4713 -10.6852 88.9103
53.4427 -10.7554 89.4396
58.4141 -10.8257 89.9689
63.3855 -10.896 90.4981
68.3569 -10.9663 91.0274
73.3283 -11.0365 91.5566
78.2997 -11.1068 92.0859
83.2712 -11.1771 92.6152
88.2426 -11.2474 93.1444
93.214 -11.3176 93.6737
98.1854 -11.3879 94.203
103.157 -11.4582 94.7322
108.128 -11.5284 95.2615
113.1 -11.5987 95.7908
118.071 -11.669 96.32
123.042 -11.7393 96.8493
128.014 -11.8095 97.3785
-61.9691 -20.5974 85.7888
-56.9977 -20.9155 86.2854
-52.0263 -21.2336 86.7821
-47.0549 -21.5518 87.2788
-42.0836 -21.8699 87.7755
-37.1122 -22.1881 88.2722
-32.1408 -22.5062 88.7689
-27.1694 -22.8244 89.2655
-22.198 -23.1425 89.7622
-17.2267 -23.4606 90.2589
-12.2553 -23.7788 90.7556
-7.28391 -24.0969 91.2523
-2.31253 -24.4151 91.7489
2.65884 -24.7332 92.2456
7.63022 -25.0513 92.7423
12.6016 -25.3695 93.239
17.573 -25.6876 93.7357
22.5444 -26.0058 94.2324
27.5157 -26.3239 94.729
32.4871 -26.6421 95.2257
37.4585 -26.9602 95.7224
42.4299 -27.2783 96.2191
47.4012 -27.5965 96.7158
52.3726 -27.9146 97.2125
57.344 -28.2328 97.7091
62.3154 -28.5509 98.2058
67.2867 -28.869 98.7025
72.2581 -29.1872 99.1992
77.2295 -29.5053 99.6959
82.2009 -29.8235 100.193
87.1723 -30.1416 100.689
92.1436 -30.4597 101.186
97.115 -30.7779 101.683
102.086 -31.096 102.179
107.058 -31.4142 102.676
112.029 -31.7323 103.173
117.001 -32.0505 103.669
121.972 -32.3686 104.166
126.943 -32.6867 104.663
126.946 -13.1052 107.237
121.975 -13.0349 106.707
117.003 -12.9646 106.178
112.032 -12.8944 105.649
107.06 -12.8241 105.12
102.089 -12.7538 104.59
97.1176 -12.6835 104.061
92.1462 -12.6133 103.532
87.1748 -12.543 103.002
82.2033 -12.4727 102.473
77.2319 -12.4024 101.944
72.2605 -12.3322 101.415
67.2891 -12.2619 100.885
62.3177 -12.1916 100.356
57.3463 -12.1213 99.8269
52.3749 -12.0511 99.2976
47.4035 -11.9808 98.7684
42.432 -11.9105 98.2391
37.4606 -11.8403 97.7098
32.4892 -11.77 97.1806
27.5178 -11.6997 96.6513
22.5464 -11.6294 96.1221
17.575 -11.5592 95.5928
12.6036 -11.4889 95.0635
7.63216 -11.4186 94.5343
2.66074 -11.3483 94.005
-2.31067 -11.2781 93.4757
-7.28208 -11.2078 92.9465
-12.2535 -11.1375 92.4172
-17.2249 -11.0672 91.8879
-22.1963 -10.997 91.3587
-27.1677 -10.9267 90.8294
-32.1391 -10.8564 90.3001
-37.1106 -10.7861 89.7709
-42.082 -10.7159 89.2416
-47.0534 -10.6456 88.7124
-52.0248 -10.5753 88.1831
-56.9962 -10.5051 87.6538
-61.9676 -10.4348 87.1246
132.986 -5.27001 98.7766
132.987 1.3398 99.6455
132.454 7.3018 105.443
131.919 0.044173 109.504
131.918 -6.56564 108.635
-65.8703 -2.45907 77.6061
-65.8707 -5.76397 77.1717
-66.4037 0.198022 82.9695
-66.9386 -7.0596 87.0297
-66.9381 -3.7547 87.4641
126.949 6.47639 109.81
121.977 6.29879 109.249
117.006 6.1212 108.687
112.034 5.94361 108.125
107.063 5.76601 107.563
102.092 5.58842 107.001
97.1201 5.41082 106.439
92.1487 5.23323 105.878
87.1772 5.05563 105.316
82.2058 4.87804 104.754
77.2344 4.70044 104.192
72.2629 4.52285 103.63
67.2915 4.34526 103.068
62.32 4.16766 102.506
57.3486 3.99007 101.945
52.3771 3.81247 101.383
47.4057 3.63488 100.821
42.4342 3.45728 100.259
37.4628 3.27969 99.6973
32.4913 3.10209 99.1354
27.5199 2.9245 98.5736
22.5484 2.74691 98.0117
17.577 2.56931 97.4499
12.6055 2.39172 96.888
7.63409 2.21412 96.3262
2.66264 2.03653 95.7644
-2.30881 1.85893 95.2025
-7.28026 1.68134 94.6407
-12.2517 1.50375 94.0788
-17.2232 1.32615 93.517
-22.1946 1.14856 92.9551
-27.166 0.970961 92.3933
-32.1375 0.793367 91.8314
-37.1089 0.615772 91.2696
-42.0804 0.438178 90.7078
-47.0518 0.260584 90.1459
-52.0233 0.082989 89.5841
-56.9947 -0.094605 89.0222
-61.9662 -0.2722 88.4604
-60.8984 1.02343 78.6023
-55.9269 1.20103 79.1642
-50.9555 1.37862 79.726
-45.984 1.55622 80.2879
-41.0126 1.73381 80.8497
-36.0411 1.91141 81.4116
-31.0697 2.089 81.9734
-26.0982 2.26659 82.5352
-21.1268 2.44419 83.0971
-16.1553 2.62178 83.6589
-11.1839 2.79938 84.2208
-6.21244 2.97697 84.7826
-1.24099 3.15457 85.3445
3.73046 3.33216 85.9063
8.7019 3.50976 86.4682
13.6734 3.68735 87.03
18.6448 3.86494 87.5918
23.6162 4.04254 88.1537
28.5877 4.22013 88.7155
33.5591 4.39773 89.2774
38.5306 4.57532 89.8392
43.502 4.75292 90.4011
48.4735 4.93051 90.9629
53.4449 5.10811 91.5248
58.4164 5.2857 92.0866
63.3878 5.46329 92.6484
68.3593 5.64089 93.2103
73.3307 5.81848 93.7721
78.3022 5.99608 94.334
83.2736 6.17367 94.8958
88.2451 6.35127 95.4577
93.2165 6.52886 96.0195
98.188 6.70646 96.5814
103.159 6.88405 97.1432
108.131 7.06164 97.7051
113.102 7.23924 98.2669
118.074 7.41683 98.8287
123.045 7.59443 99.3906
128.017 7.77202 99.9524
132.45 -19.1374 101.968
132.45 -25.7473 101.099
-66.4056 -13.0216 81.2319
-66.4061 -16.3265 80.7975
128.013 -18.3367 96.5206
128.012 -24.8639 95.6626
123.042 -18.1838 96.0022
123.041 -24.6284 95.1551
118.07 -18.0309 95.4838
118.069 -24.3929 94.6475
113.099 -17.878 94.9654
113.098 -24.1574 94.14
108.127 -17.7251 94.447
108.126 -23.9218 93.6324
103.156 -17.5722 93.9286
103.155 -23.6863 93.1249
98.1845 -17.4194 93.4102
98.1837 -23.4508 92.6174
93.2131 -17.2665 92.8918
93.2123 -23.2153 92.1098
88.2417 -17.1136 92.3734
88.2409 -22.9798 91.6023
83.2703 -16.9607 91.855
83.2695 -22.7442 91.0947
78.2989 -16.8078 91.3365
78.2981 -22.5087 90.5872
73.3275 -16.6549 90.8181
73.3267 -22.2732 90.0796
68.3561 -16.502 90.2997
68.3554 -22.0377 89.5721
63.3847 -16.3491 89.7813
63.384 -21.8022 89.0646
58.4133 -16.1962 89.2629
58.4126 -21.5667 88.557
53.4419 -16.0433 88.7445
53.4412 -21.3311 88.0495
48.4705 -15.8904 88.2261
48.4698 -21.0956 87.5419
43.4991 -15.7375 87.7077
43.4984 -20.8601 87.0344
38.5277 -15.5846 87.1893
38.527 -20.6246 86.5268
33.5563 -15.4317 86.6709
33.5556 -20.3891 86.0193
28.5849 -15.2788 86.1525
28.5842 -20.1535 85.5118
23.6135 -15.1259 85.6341
23.6129 -19.918 85.0042
18.6421 -14.973 85.1157
18.6415 -19.6825 84.4967
13.6707 -14.8201 84.5973
13.6701 -19.447 83.9891
8.69933 -14.6672 84.0789
8.69868 -19.2115 83.4816
3.72793 -14.5143 83.5605
3.72729 -18.9759 82.974
-1.24347 -14.3614 83.0421
-1.24409 -18.7404 82.4665
-6.21488 -14.2085 82.5237
-6.21548 -18.5049 81.959
-11.1863 -14.0556 82.0053
-11.1869 -18.2694 81.4514
-16.1577 -13.9027 81.4869
-16.1583 -18.0339 80.9439
-21.1291 -13.7498 80.9685
-21.1297 -17.7984 80.4363
-26.1005 -13.597 80.4501
-26.101 -17.5628 79.9288
-31.0719 -13.4441 79.9317
-31.0724 -17.3273 79.4212
-36.0433 -13.2912 79.4133
-36.0438 -17.0918 78.9137
-41.0147 -13.1383 78.8949
-41.0152 -16.8563 78.4061
-45.9861 -12.9854 78.3765
-45.9866 -16.6208 77.8986
-50.9575 -12.8325 77.8581
-50.958 -16.3852 77.3911
-55.9289 -12.6796 77.3396
-55.9294 -16.1497 76.8835
-60.9003 -12.5267 76.8212
-60.9008 -15.9142 76.376
126.945 -19.6324 106.379
126.944 -26.1595 105.521
121.974 -19.4795 105.86
121.973 -25.924 105.013
117.002 -19.3266 105.342
117.001 -25.6885 104.506
112.031 -19.1737 104.823
112.03 -25.453 103.998
107.06 -19.0208 104.305
107.059 -25.2175 103.49
102.088 -18.8679 103.787
102.087 -24.982 102.983
97.1167 -18.715 103.268
97.1159 -24.7464 102.475
92.1453 -18.5621 102.75
92.1445 -24.5109 101.968
87.1739 -18.4092 102.231
87.1731 -24.2754 101.46
82.2025 -18.2563 101.713
82.2017 -24.0399 100.953
77.2311 -18.1034 101.195
77.2303 -23.8044 100.445
72.2597 -17.9505 100.676
72.2589 -23.5688 99.9377
67.2883 -17.7976 100.158
67.2875 -23.3333 99.4301
62.3169 -17.6447 99.6394
62.3161 -23.0978 98.9226
57.3455 -17.4918 99.121
57.3448 -22.8623 98.4151
52.3741 -17.3389 98.6026
52.3734 -22.6268 97.9075
47.4027 -17.186 98.0842
47.402 -22.3912 97.4
42.4313 -17.0331 97.5658
42.4306 -22.1557 96.8924
37.4599 -16.8802 97.0474
37.4592 -21.9202 96.3849
32.4885 -16.7273 96.529
32.4878 -21.6847 95.8773
27.5171 -16.5744 96.0106
27.5164 -21.4492 95.3698
22.5457 -16.4215 95.4922
22.545 -21.2137 94.8623
17.5743 -16.2686 94.9738
17.5736 -20.9781 94.3547
12.6029 -16.1158 94.4553
12.6023 -20.7426 93.8472
7.63151 -15.9629 93.9369
7.63087 -20.5071 93.3396
2.66011 -15.81 93.4185
2.65948 -20.2716 92.8321
-2.31129 -15.6571 92.9001
-2.31191 -20.0361 92.3245
-7.28269 -15.5042 92.3817
-7.2833 -19.8005 91.817
-12.2541 -15.3513 91.8633
-12.2547 -19.565 91.3095
-17.2255 -15.1984 91.3449
-17.2261 -19.3295 90.8019
-22.1969 -15.0455 90.8265
-22.1975 -19.094 90.2944
-27.1683 -14.8926 90.3081
-27.1689 -18.8585 89.7868
-32.1397 -14.7397 89.7897
-32.1402 -18.623 89.2793
-37.1111 -14.5868 89.2713
-37.1116 -18.3874 88.7717
-42.0825 -14.4339 88.7529
-42.083 -18.1519 88.2642
-47.0539 -14.281 88.2345
-47.0544 -17.9164 87.7567
-52.0253 -14.1281 87.7161
-52.0258 -17.6809 87.2491
-56.9967 -13.9752 87.1977
-56.9972 -17.4454 86.7416
-61.9681 -13.8223 86.6793
-61.9686 -17.2098 86.234
127.48 -12.4574 102.308
122.509 -12.3871 101.778
117.537 -12.3168 101.249
112.566 -12.2465 100.72
107.594 -12.1763 100.191
102.623 -12.106 99.6612
97.6515 -12.0357 99.132
92.6801 -11.9654 98.6027
87.7087 -11.8952 98.0735
82.7372 -11.8249 97.5442
77.7658 -11.7546 97.0149
72.7944 -11.6844 96.4857
67.823 -11.6141 95.9564
62.8516 -11.5438 95.4271
57.8802 -11.4735 94.8979
52.9088 -11.4033 94.3686
47.9374 -11.333 93.8393
42.9659 -11.2627 93.3101
37.9945 -11.1924 92.7808
33.0231 -11.1222 92.2516
28.0517 -11.0519 91.7223
23.0803 -10.9816 91.193
18.1089 -10.9113 90.6638
13.1375 -10.8411 90.1345
8.16606 -10.7708 89.6052
3.19465 -10.7005 89.076
-1.77676 -10.6302 88.5467
-6.74817 -10.56 88.0174
-11.7196 -10.4897 87.4882
-16.691 -10.4194 86.9589
-21.6624 -10.3492 86.4297
-26.6338 -10.2789 85.9004
-31.6052 -10.2086 85.3711
-36.5766 -10.1383 84.8419
-41.5481 -10.0681 84.3126
-46.5195 -9.99779 83.7833
-51.4909 -9.92751 83.2541
-56.4623 -9.85724 82.7248
-61.4337 -9.78697 82.1955
127.477 -32.0389 99.7337
122.506 -31.7208 99.237
117.534 -31.4026 98.7403
112.563 -31.0845 98.2436
107.592 -30.7664 97.747
102.62 -30.4482 97.2503
97.6489 -30.1301 96.7536
92.6775 -29.8119 96.2569
87.7062 -29.4938 95.7602
82.7348 -29.1756 95.2635
77.7634 -28.8575 94.7669
72.792 -28.5394 94.2702
67.8207 -28.2212 93.7735
62.8493 -27.9031 93.2768
57.8779 -27.5849 92.7801
52.9065 -27.2668 92.2834
47.9351 -26.9487 91.7868
42.9638 -26.6305 91.2901
37.9924 -26.3124 90.7934
33.021 -25.9942 90.2967
28.0496 -25.6761 89.8
23.0783 -25.358 89.3033
18.1069 -25.0398 88.8067
13.1355 -24.7217 88.31
8.16413 -24.4035 87.8133
3.19275 -24.0854 87.3166
-1.77862 -23.7672 86.8199
-6.75 -23.4491 86.3232
-11.7214 -23.131 85.8266
-16.6928 -22.8128 85.3299
-21.6641 -22.4947 84.8332
-26.6355 -22.1765 84.3365
-31.6069 -21.8584 83.8398
-36.5783 -21.5403 83.3431
-41.5496 -21.2221 82.8465
-46.521 -20.904 82.3498
-51.4924 -20.5858 81.8531
-56.4638 -20.2677 81.3564
-61.4352 -19.9495 80.8597
132.452 -5.91782 103.706
132.453 0.691989 104.574
-66.4047 -6.41179 82.1007
-66.4042 -3.10688 82.5351
126.947 -6.57799 108.095
126.948 -0.050799 108.953
121.976 -6.59034 107.554
121.976 -0.145771 108.402
117.004 -6.60269 107.014
117.005 -0.240743 107.851
112.033 -6.61503 106.474
112.034 -0.335714 107.3
107.061 -6.62738 105.934
107.062 -0.430686 106.749
102.09 -6.63973 105.394
102.091 -0.525658 106.198
97.1184 -6.65208 104.854
97.1193 -0.620629 105.647
92.147 -6.66443 104.314
92.1479 -0.715601 105.096
87.1756 -6.67678 103.774
87.1764 -0.810574 104.545
82.2042 -6.68913 103.233
82.205 -0.905545 103.994
77.2327 -6.70148 102.693
77.2335 -1.00052 103.443
72.2613 -6.71383 102.153
72.2621 -1.09549 102.892
67.2899 -6.72618 101.613
67.2907 -1.19046 102.341
62.3185 -6.73853 101.073
62.3192 -1.28543 101.79
57.347 -6.75087 100.533
57.3478 -1.3804 101.239
52.3756 -6.76322 99.9927
52.3764 -1.47538 100.688
47.4042 -6.77557 99.4526
47.4049 -1.57035 100.137
42.4328 -6.78792 98.9124
42.4335 -1.66532 99.5858
37.4613 -6.80027 98.3723
37.4621 -1.76029 99.0348
32.4899 -6.81262 97.8322
32.4906 -1.85526 98.4838
27.5185 -6.82497 97.2921
27.5192 -1.95023 97.9328
22.5471 -6.83732 96.7519
22.5478 -2.04521 97.3818
17.5756 -6.84967 96.2118
17.5763 -2.14018 96.8309
12.6042 -6.86202 95.6717
12.6049 -2.23515 96.2799
7.6328 -6.87437 95.1316
7.63344 -2.33012 95.7289
2.66138 -6.88672 94.5914
2.66201 -2.42509 95.1779
-2.31005 -6.89907 94.0513
-2.30943 -2.52007 94.6269
-7.28147 -6.91141 93.5112
-7.28086 -2.61504 94.0759
-12.2529 -6.92376 92.9711
-12.2523 -2.71001 93.525
-17.2243 -6.93611 92.431
-17.2237 -2.80498 92.974
-22.1957 -6.94846 91.8908
-22.1952 -2.89995 92.423
-27.1672 -6.96081 91.3507
-27.1666 -2.99492 91.872
-32.1386 -6.97316 90.8106
-32.138 -3.0899 91.321
-37.11 -6.98551 90.2705
-37.1095 -3.18487 90.77
-42.0814 -6.99786 89.7303
-42.0809 -3.27984 90.219
-47.0529 -7.01021 89.1902
-47.0524 -3.37481 89.6681
-52.0243 -7.02256 88.6501
-52.0238 -3.46978 89.1171
-56.9957 -7.03491 88.11
-56.9952 -3.56476 88.5661
-61.9671 -7.04725 87.5698
-61.9667 -3.65973 88.0151
128.015 -5.28235 98.2365
128.016 1.24483 99.0945
123.043 -5.2947 97.6964
123.044 1.14986 98.5435
118.072 -5.30705 97.1563
118.073 1.05489 97.9925
113.101 -5.3194 96.6161
113.101 0.959919 97.4415
108.129 -5.33175 96.076
108.13 0.864947 96.8905
103.158 -5.3441 95.5359
103.159 0.769975 96.3395
98.1863 -5.35645 94.9958
98.1871 0.675003 95.7886
93.2148 -5.3688 94.4556
93.2157 0.580031 95.2376
88.2434 -5.38115 93.9155
88.2442 0.485059 94.6866
83.272 -5.3935 93.3754
83.2728 0.390088 94.1356
78.3006 -5.40585 92.8353
78.3014 0.295116 93.5846
73.3291 -5.41819 92.2951
73.3299 0.200144 93.0336
68.3577 -5.43054 91.755
68.3585 0.105173 92.4827
63.3863 -5.44289 91.2149
63.3871 0.0102 91.9317
58.4149 -5.45524 90.6748
58.4156 -0.084772 91.3807
53.4434 -5.46759 90.1346
53.4442 -0.179743 90.8297
48.472 -5.47994 89.5945
48.4727 -0.274715 90.2787
43.5006 -5.49229 89.0544
43.5013 -0.369687 89.7277
38.5292 -5.50464 88.5143
38.5299 -0.464658 89.1767
33.5577 -5.51699 87.9741
33.5584 -0.55963 88.6258
28.5863 -5.52934 87.434
28.587 -0.654602 88.0748
23.6149 -5.54169 86.8939
23.6156 -0.749574 87.5238
18.6435 -5.55404 86.3538
18.6441 -0.844546 86.9728
13.672 -5.56639 85.8137
13.6727 -0.939518 86.4218
8.70062 -5.57873 85.2735
8.70126 -1.03449 85.8708
3.72919 -5.59108 84.7334
3.72982 -1.12946 85.3199
-1.24223 -5.60343 84.1933
-1.24161 -1.22443 84.7689
-6.21366 -5.61578 83.6532
-6.21305 -1.3194 84.2179
-11.1851 -5.62813 83.113
-11.1845 -1.41438 83.6669
-16.1565 -5.64048 82.5729
-16.1559 -1.50935 83.1159
-21.1279 -5.65283 82.0328
-21.1274 -1.60432 82.5649
-26.0994 -5.66518 81.4927
-26.0988 -1.69929 82.014
-31.0708 -5.67753 80.9525
-31.0702 -1.79426 81.463
-36.0422 -5.68988 80.4124
-36.0417 -1.88924 80.912
-41.0136 -5.70223 79.8723
-41.0131 -1.98421 80.361
-45.985 -5.71457 79.3322
-45.9845 -2.07918 79.81
-50.9565 -5.72692 78.792
-50.956 -2.17415 79.259
-55.9279 -5.73927 78.2519
-55.9274 -2.26912 78.708
-60.8993 -5.75162 77.7118
-60.8988 -2.36409 78.1571
127.483 7.1242 104.881
122.511 6.94661 104.32
117.54 6.76902 103.758
112.568 6.59142 103.196
107.597 6.41383 102.634
102.625 6.23623 102.072
97.6541 6.05864 101.51
92.6826 5.88104 100.949
87.7112 5.70345 100.387
82.7397 5.52585 99.8249
77.7683 5.34826 99.263
72.7968 5.17067 98.7012
67.8254 4.99307 98.1393
62.8539 4.81548 97.5775
57.8825 4.63788 97.0156
52.911 4.46029 96.4538
47.9396 4.28269 95.8919
42.9681 4.1051 95.3301
37.9967 3.92751 94.7682
33.0252 3.74991 94.2064
28.0538 3.57232 93.6446
23.0823 3.39472 93.0827
18.1109 3.21713 92.5209
13.1394 3.03953 91.959
8.168 2.86194 91.3972
3.19655 2.68434 90.8353
-1.7749 2.50675 90.2735
-6.74635 2.32916 89.7116
-11.7178 2.15156 89.1498
-16.6892 1.97397 88.588
-21.6607 1.79637 88.0261
-26.6321 1.61878 87.4643
-31.6036 1.44118 86.9024
-36.575 1.26359 86.3406
-41.5465 1.08599 85.7787
-46.5179 0.9084 85.2169
-51.4894 0.730806 84.655
-56.4608 0.553211 84.0932
-61.4323 0.375617 83.5314
127.479 -18.9845 101.45
127.478 -25.5117 100.592
122.508 -18.8316 100.931
122.507 -25.2762 100.084
117.536 -18.6788 100.413
117.535 -25.0407 99.5766
112.565 -18.5259 99.8944
112.564 -24.8052 99.069
107.593 -18.373 99.376
107.593 -24.5697 98.5615
102.622 -18.2201 98.8576
102.621 -24.3341 98.0539
97.6506 -18.0672 98.3392
97.6498 -24.0986 97.5464
92.6792 -17.9143 97.8208
92.6784 -23.8631 97.0388
87.7078 -17.7614 97.3024
87.707 -23.6276 96.5313
82.7364 -17.6085 96.784
82.7356 -23.3921 96.0238
77.765 -17.4556 96.2656
77.7642 -23.1565 95.5162
72.7936 -17.3027 95.7472
72.7928 -22.921 95.0087
67.8222 -17.1498 95.2288
67.8214 -22.6855 94.5011
62.8508 -16.9969 94.7104
62.8501 -22.45 93.9936
57.8794 -16.844 94.192
57.8787 -22.2145 93.486
52.908 -16.6911 93.6736
52.9073 -21.979 92.9785
47.9366 -16.5382 93.1552
47.9359 -21.7434 92.471
42.9652 -16.3853 92.6367
42.9645 -21.5079 91.9634
37.9938 -16.2324 92.1183
37.9931 -21.2724 91.4559
33.0224 -16.0795 91.5999
33.0217 -21.0369 90.9483
28.051 -15.9266 91.0815
28.0503 -20.8014 90.4408
23.0796 -15.7737 90.5631
23.0789 -20.5658 89.9332
18.1082 -15.6208 90.0447
18.1076 -20.3303 89.4257
13.1368 -15.4679 89.5263
13.1362 -20.0948 88.9181
8.16542 -15.315 89.0079
8.16478 -19.8593 88.4106
3.19402 -15.1621 88.4895
3.19339 -19.6238 87.9031
-1.77738 -15.0092 87.9711
-1.778 -19.3882 87.3955
-6.74878 -14.8564 87.4527
-6.74939 -19.1527 86.888
-11.7202 -14.7035 86.9343
-11.7208 -18.9172 86.3804
-16.6916 -14.5506 86.4159
-16.6922 -18.6817 85.8729
-21.663 -14.3977 85.8975
-21.6636 -18.4462 85.3653
-26.6344 -14.2448 85.3791
-26.6349 -18.2107 84.8578
-31.6058 -14.0919 84.8607
-31.6063 -17.9751 84.3503
-36.5772 -13.939 84.3423
-36.5777 -17.7396 83.8427
-41.5486 -13.7861 83.8239
-41.5491 -17.5041 83.3352
-46.52 -13.6332 83.3055
-46.5205 -17.2686 82.8276
-51.4914 -13.4803 82.7871
-51.4919 -17.0331 82.3201
-56.4628 -13.3274 82.2687
-56.4633 -16.7975 81.8125
-61.4342 -13.1745 81.7503
-61.4347 -16.562 81.305
127.481 -5.93017 103.166
127.482 0.597018 104.023
122.509 -5.94252 102.625
122.51 0.502046 103.473
117.538 -5.95487 102.085
117.539 0.407074 102.922
112.567 -5.96722 101.545
112.568 0.312102 102.371
107.595 -5.97957 101.005
107.596 0.21713 101.82
102.624 -5.99192 100.465
102.625 0.122158 101.269
97.6523 -6.00427 99.9248
97.6532 0.027187 100.718
92.6809 -6.01661 99.3847
92.6818 -0.067785 100.167
87.7095 -6.02896 98.8445
87.7103 -0.162757 99.6156
82.7381 -6.04131 98.3044
82.7389 -0.257728 99.0646
77.7666 -6.05366 97.7643
77.7675 -0.352701 98.5136
72.7952 -6.06601 97.2242
72.796 -0.447673 97.9627
67.8238 -6.07836 96.684
67.8246 -0.542644 97.4117
62.8524 -6.09071 96.1439
62.8531 -0.637616 96.8607
57.8809 -6.10306 95.6038
57.8817 -0.732588 96.3097
52.9095 -6.11541 95.0637
52.9103 -0.827559 95.7587
47.9381 -6.12776 94.5235
47.9388 -0.922531 95.2077
42.9667 -6.14011 93.9834
42.9674 -1.0175 94.6568
37.9953 -6.15245 93.4433
37.996 -1.11248 94.1058
33.0238 -6.1648 92.9032
33.0245 -1.20745 93.5548
28.0524 -6.17715 92.363
28.0531 -1.30242 93.0038
23.081 -6.1895 91.8229
23.0817 -1.39739 92.4528
18.1096 -6.20185 91.2828
18.1102 -1.49236 91.9018
13.1381 -6.2142 90.7427
13.1388 -1.58733 91.3508
8.16671 -6.22655 90.2026
8.16735 -1.6823 90.7999
3.19528 -6.2389 89.6624
3.19592 -1.77728 90.2489
-1.77614 -6.25125 89.1223
-1.77552 -1.87225 89.6979
-6.74756 -6.2636 88.5822
-6.74696 -1.96722 89.1469
-11.719 -6.27595 88.0421
-11.7184 -2.06219 88.5959
-16.6904 -6.2883 87.5019
-16.6898 -2.15716 88.0449
-21.6618 -6.30065 86.9618
-21.6613 -2.25214 87.494
-26.6333 -6.31299 86.4217
-26.6327 -2.34711 86.943
-31.6047 -6.32534 85.8816
-31.6041 -2.44208 86.392
-36.5761 -6.33769 85.3414
-36.5756 -2.53705 85.841
-41.5475 -6.35004 84.8013
-41.547 -2.63202 85.29
-46.519 -6.36239 84.2612
-46.5184 -2.727 84.739
-51.4904 -6.37474 83.7211
-51.4899 -2.82197 84.1881
-56.4618 -6.38709 83.1809
-56.4613 -2.91694 83.6371
-61.4332 -6.39944 82.6408
-61.4327 -3.01191 83.0861
129.722 12.785 51.9838
132.158 14.9277 61.443
132.155 -4.57789 65.8623
129.72 -6.72068 56.4031
-61.8195 25.7166 108.944
-61.8209 15.9638 111.154
-64.2564 13.821 101.694
-64.255 23.5738 99.4847
129.725 32.2906 47.5645
132.161 34.4334 57.0237
-64.2537 33.3266 97.275
-61.8182 35.4694 106.734
130.94 13.8563 56.7134
132.157 8.42586 62.9161
132.156 1.92399 64.3892
130.938 -5.64929 61.1327
129.721 -0.218801 54.93
129.722 6.28308 53.4569
-63.0373 24.6452 104.214
-61.8204 19.2147 110.417
-61.82 22.4657 109.68
-63.0386 14.8924 106.424
-64.2555 20.3229 100.221
-64.2559 17.0719 100.958
124.87 -6.20714 57.5353
120.021 -5.6936 58.6676
115.172 -5.18006 59.7999
110.322 -4.66651 60.9322
105.473 -4.15297 62.0645
100.623 -3.63943 63.1968
95.7739 -3.12589 64.329
90.9245 -2.61235 65.4613
86.0751 -2.09881 66.5936
81.2257 -1.58526 67.7259
76.3763 -1.07172 68.8582
71.5269 -0.55818 69.9904
66.6775 -0.044638 71.1227
61.8281 0.468903 72.255
56.9787 0.982445 73.3873
52.1293 1.49599 74.5196
47.2799 2.00953 75.6518
42.4305 2.52307 76.7841
37.5811 3.03661 77.9164
32.7317 3.55015 79.0487
27.8823 4.0637 80.181
23.0329 4.57724 81.3133
18.1835 5.09078 82.4455
13.3341 5.60432 83.5778
8.48466 6.11786 84.7101
3.63526 6.6314 85.8424
-1.21415 7.14495 86.9747
-6.06355 7.65849 88.1069
-10.913 8.17203 89.2392
-15.7624 8.68557 90.3715
-20.6118 9.19911 91.5038
-25.4612 9.71265 92.6361
-30.3106 10.2262 93.7683
-35.16 10.7397 94.9006
-40.0094 11.2533 96.0329
-44.8588 11.7668 97.1652
-49.7082 12.2804 98.2975
-54.5576 12.7939 99.4298
-59.407 13.3074 100.562
-59.4056 23.3041 98.2972
-54.5562 23.0344 97.1096
-49.7067 22.7646 95.9221
-44.8573 22.4949 94.7346
-40.0079 22.2252 93.5471
-35.1584 21.9555 92.3595
-30.309 21.6858 91.172
-25.4595 21.416 89.9845
-20.6101 21.1463 88.797
-15.7607 20.8766 87.6094
-10.9112 20.6069 86.4219
-6.0618 20.3372 85.2344
-1.21236 20.0674 84.0469
3.63708 19.7977 82.8594
8.48652 19.528 81.6718
13.336 19.2583 80.4843
18.1854 18.9885 79.2968
23.0348 18.7188 78.1093
27.8843 18.4491 76.9217
32.7337 18.1794 75.7342
37.5831 17.9097 74.5467
42.4326 17.6399 73.3592
47.282 17.3702 72.1717
52.1314 17.1005 70.9841
56.9809 16.8308 69.7966
61.8303 16.5611 68.6091
66.6798 16.2913 67.4216
71.5292 16.0216 66.234
76.3786 15.7519 65.0465
81.2281 15.4822 63.859
86.0775 15.2124 62.6715
90.9269 14.9427 61.484
95.7764 14.673 60.2964
100.626 14.4033 59.1089
105.475 14.1336 57.9214
110.325 13.8638 56.7339
115.174 13.5941 55.5463
120.024 13.3244 54.3588
124.873 13.0547 53.1713
-56.9715 15.4502 110.021
-52.122 14.9367 108.889
-47.2726 14.4231 107.757
-42.4232 13.9096 106.624
-37.5738 13.3961 105.492
-32.7244 12.8825 104.36
-27.875 12.369 103.228
-23.0256 11.8554 102.095
-18.1762 11.3419 100.963
-13.3268 10.8284 99.8307
-8.47742 10.3148 98.6984
-3.62801 9.80127 97.5661
1.22139 9.28773 96.4339
6.07079 8.77419 95.3016
10.9202 8.26065 94.1693
15.7696 7.74711 93.037
20.619 7.23356 91.9047
25.4684 6.72002 90.7725
30.3178 6.20648 89.6402
35.1672 5.69294 88.5079
40.0166 5.1794 87.3756
44.866 4.66586 86.2433
49.7154 4.15231 85.1111
54.5648 3.63877 83.9788
59.4142 3.12523 82.8465
64.2636 2.61169 81.7142
69.113 2.09815 80.5819
73.9624 1.58461 79.4496
78.8118 1.07106 78.3174
83.6612 0.557522 77.1851
88.5107 0.043981 76.0528
93.3601 -0.469561 74.9205
98.2095 -0.983103 73.7882
103.059 -1.49664 72.656
107.908 -2.01019 71.5237
112.758 -2.52373 70.3914
117.607 -3.03727 69.2591
122.456 -3.55081 68.1268
127.306 -4.06435 66.9946
127.309 15.1975 62.6305
122.459 15.4672 63.818
117.61 15.7369 65.0055
112.76 16.0066 66.1931
107.911 16.2763 67.3806
103.061 16.5461 68.5681
98.2119 16.8158 69.7556
93.3625 17.0855 70.9432
88.513 17.3552 72.1307
83.6636 17.625 73.3182
78.8142 17.8947 74.5057
73.9647 18.1644 75.6933
69.1153 18.4341 76.8808
64.2659 18.7038 78.0683
59.4164 18.9736 79.2558
54.567 19.2433 80.4433
49.7175 19.513 81.6309
44.8681 19.7827 82.8184
40.0187 20.0524 84.0059
35.1692 20.3222 85.1934
30.3198 20.5919 86.381
25.4704 20.8616 87.5685
20.6209 21.1313 88.756
15.7715 21.4011 89.9435
10.9221 21.6708 91.131
6.07261 21.9405 92.3186
1.22318 22.2102 93.5061
-3.62626 22.4799 94.6936
-8.4757 22.7497 95.8811
-13.3251 23.0194 97.0687
-18.1746 23.2891 98.2562
-23.024 23.5588 99.4437
-27.8734 23.8285 100.631
-32.7229 24.0983 101.819
-37.5723 24.368 103.006
-42.4218 24.6377 104.194
-47.2712 24.9074 105.381
-52.1206 25.1772 106.569
-56.9701 25.4469 107.756
129.723 19.2868 50.5107
129.724 25.7887 49.0376
130.943 33.362 52.2941
132.16 27.9315 58.4968
132.159 21.4296 59.9699
-64.2541 30.0757 98.0116
-64.2546 26.8247 98.7481
-63.0359 34.398 102.005
-61.8191 28.9675 108.207
-61.8186 32.2185 107.471
127.311 34.4593 58.2665
122.462 34.4852 59.5092
117.612 34.5111 60.752
112.763 34.537 61.9947
107.913 34.5629 63.2375
103.064 34.5888 64.4803
98.2144 34.6147 65.723
93.3649 34.6406 66.9658
88.5154 34.6665 68.2086
83.666 34.6924 69.4513
78.8165 34.7183 70.6941
73.967 34.7442 71.9369
69.1176 34.7701 73.1796
64.2681 34.796 74.4224
59.4186 34.8219 75.6651
54.5691 34.8478 76.9079
49.7197 34.8737 78.1507
44.8702 34.8996 79.3934
40.0207 34.9255 80.6362
35.1713 34.9514 81.879
30.3218 34.9773 83.1217
25.4723 35.0032 84.3645
20.6228 35.0291 85.6073
15.7734 35.055 86.85
10.9239 35.0809 88.0928
6.07443 35.1068 89.3355
1.22496 35.1327 90.5783
-3.62451 35.1586 91.8211
-8.47398 35.1845 93.0638
-13.3234 35.2104 94.3066
-18.1729 35.2363 95.5494
-23.0224 35.2622 96.7921
-27.8719 35.2881 98.0349
-32.7213 35.314 99.2777
-37.5708 35.3399 100.52
-42.4203 35.3658 101.763
-47.2697 35.3917 103.006
-52.1192 35.4176 104.249
-56.9687 35.4435 105.491
-59.4042 33.3007 96.0323
-54.5548 33.2748 94.7895
-49.7053 33.2489 93.5467
-44.8558 33.223 92.304
-40.0063 33.1971 91.0612
-35.1569 33.1712 89.8184
-30.3074 33.1453 88.5757
-25.4579 33.1194 87.3329
-20.6085 33.0935 86.0902
-15.759 33.0676 84.8474
-10.9095 33.0417 83.6046
-6.06004 33.0158 82.3619
-1.21057 32.9899 81.1191
3.6389 32.964 79.8763
8.48837 32.9381 78.6336
13.3378 32.9122 77.3908
18.1873 32.8863 76.148
23.0368 32.8604 74.9053
27.8863 32.8345 73.6625
32.7357 32.8086 72.4198
37.5852 32.7827 71.177
42.4347 32.7568 69.9342
47.2841 32.7309 68.6915
52.1336 32.705 67.4487
56.9831 32.6791 66.2059
61.8325 32.6532 64.9632
66.682 32.6273 63.7204
71.5315 32.6014 62.4776
76.381 32.5755 61.2349
81.2304 32.5496 59.9921
86.0799 32.5237 58.7494
90.9294 32.4978 57.5066
95.7788 32.4719 56.2638
100.628 32.446 55.0211
105.478 32.4201 53.7783
110.327 32.3942 52.5355
115.177 32.3683 51.2928
120.026 32.3424 50.05
124.876 32.3165 48.8072
130.939 7.35447 58.1865
130.938 0.852592 59.6596
-63.0377 21.3943 104.951
-63.0382 18.1433 105.687
124.872 6.63407 54.626
124.871 0.213466 56.0807
120.023 6.98507 55.7951
120.022 0.645735 57.2314
115.173 7.33606 56.9642
115.172 1.078 58.382
110.324 7.68706 58.1333
110.323 1.51027 59.5327
105.474 8.03805 59.3024
105.474 1.94254 60.6834
100.625 8.38905 60.4715
100.624 2.37481 61.8341
95.7756 8.74004 61.6406
95.7747 2.80708 62.9848
90.9261 9.09103 62.8097
90.9253 3.23934 64.1355
86.0767 9.44203 63.9788
86.0759 3.67161 65.2862
81.2273 9.79303 65.148
81.2265 4.10388 66.4369
76.3779 10.144 66.3171
76.3771 4.53615 67.5876
71.5284 10.495 67.4862
71.5277 4.96842 68.7383
66.679 10.846 68.6553
66.6783 5.40069 69.889
61.8296 11.197 69.8244
61.8288 5.83295 71.0397
56.9802 11.548 70.9935
56.9794 6.26522 72.1904
52.1307 11.899 72.1626
52.13 6.69749 73.3411
47.2813 12.25 73.3317
47.2806 7.12976 74.4918
42.4319 12.601 74.5008
42.4312 7.56203 75.6425
37.5825 12.952 75.6699
37.5818 7.99429 76.7932
32.733 13.303 76.839
32.7324 8.42656 77.9439
27.8836 13.654 78.0082
27.8829 8.85883 79.0946
23.0342 14.005 79.1773
23.0335 9.2911 80.2453
18.1847 14.356 80.3464
18.1841 9.72337 81.396
13.3353 14.707 81.5155
13.3347 10.1556 82.5466
8.4859 15.0579 82.6846
8.48528 10.5879 83.6973
3.63647 15.4089 83.8537
3.63586 11.0202 84.848
-1.21296 15.7599 85.0228
-1.21355 11.4524 85.9987
-6.06238 16.1109 86.1919
-6.06297 11.8847 87.1494
-10.9118 16.4619 87.361
-10.9124 12.317 88.3001
-15.7612 16.8129 88.5301
-15.7618 12.7492 89.4508
-20.6107 17.1639 89.6992
-20.6112 13.1815 90.6015
-25.4601 17.5149 90.8684
-25.4606 13.6138 91.7522
-30.3095 17.8659 92.0375
-30.31 14.046 92.9029
-35.1589 18.2169 93.2066
-35.1595 14.4783 94.0536
-40.0084 18.5679 94.3757
-40.0089 14.9106 95.2043
-44.8578 18.9189 95.5448
-44.8583 15.3429 96.355
-49.7072 19.2699 96.7139
-49.7077 15.7751 97.5057
-54.5566 19.6209 97.883
-54.5571 16.2074 98.6564
-59.4061 19.9719 99.0521
-59.4065 16.6397 99.8071
127.308 8.77686 64.0852
127.307 2.35625 65.5399
122.458 9.12785 65.2543
122.457 2.78852 66.6906
117.609 9.47885 66.4234
117.608 3.22079 67.8413
112.759 9.82984 67.5925
112.759 3.65306 68.992
107.91 10.1808 68.7616
107.909 4.08533 70.1426
103.061 10.5318 69.9307
103.06 4.51759 71.2933
98.2111 10.8828 71.0998
98.2103 4.94986 72.444
93.3617 11.2338 72.2689
93.3609 5.38213 73.5947
88.5122 11.5848 73.4381
88.5114 5.8144 74.7454
83.6628 11.9358 74.6072
83.662 6.24667 75.8961
78.8134 12.2868 75.7763
78.8126 6.67894 77.0468
73.964 12.6378 76.9454
73.9632 7.1112 78.1975
69.1145 12.9888 78.1145
69.1138 7.54347 79.3482
64.2651 13.3398 79.2836
64.2644 7.97574 80.4989
59.4157 13.6908 80.4527
59.415 8.40801 81.6496
54.5663 14.0418 81.6218
54.5655 8.84028 82.8003
49.7168 14.3928 82.7909
49.7161 9.27254 83.951
44.8674 14.7438 83.96
44.8667 9.70481 85.1017
40.018 15.0948 85.1291
40.0173 10.1371 86.2524
35.1686 15.4458 86.2983
35.1679 10.5693 87.4031
30.3191 15.7968 87.4674
30.3185 11.0016 88.5538
25.4697 16.1477 88.6365
25.4691 11.4339 89.7045
20.6203 16.4987 89.8056
20.6196 11.8662 90.8552
15.7709 16.8497 90.9747
15.7702 12.2984 92.0059
10.9214 17.2007 92.1438
10.9208 12.7307 93.1566
6.07201 17.5517 93.3129
6.0714 13.163 94.3072
1.22258 17.9027 94.482
1.22199 13.5952 95.4579
-3.62684 18.2537 95.6511
-3.62743 14.0275 96.6086
-8.47627 18.6047 96.8202
-8.47684 14.4598 97.7593
-13.3257 18.9557 97.9893
-13.3263 14.892 98.91
-18.1751 19.3067 99.1585
-18.1757 15.3243 100.061
-23.0245 19.6577 100.328
-23.0251 15.7566 101.211
-27.874 20.0087 101.497
-27.8745 16.1888 102.362
-32.7234 20.3597 102.666
-32.7239 16.6211 103.513
-37.5728 20.7107 103.835
-37.5733 17.0534 104.664
-42.4223 21.0617 105.004
-42.4227 17.4856 105.814
-47.2717 21.4127 106.173
-47.2722 17.9179 106.965
-52.1211 21.7637 107.342
-52.1216 18.3502 108.116
-56.9705 22.1147 108.511
-56.971 18.7824 109.266
126.091 14.1261 57.9009
121.241 14.3958 59.0884
116.392 14.6655 60.2759
111.542 14.9352 61.4635
106.693 15.205 62.651
101.844 15.4747 63.8385
96.9942 15.7444 65.026
92.1447 16.0141 66.2136
87.2953 16.2838 67.4011
82.4458 16.5536 68.5886
77.5964 16.8233 69.7761
72.747 17.093 70.9636
67.8975 17.3627 72.1512
63.0481 17.6324 73.3387
58.1987 17.9022 74.5262
53.3492 18.1719 75.7137
48.4998 18.4416 76.9013
43.6503 18.7113 78.0888
38.8009 18.9811 79.2763
33.9515 19.2508 80.4638
29.102 19.5205 81.6513
24.2526 19.7902 82.8389
19.4032 20.0599 84.0264
14.5537 20.3297 85.2139
9.70428 20.5994 86.4014
4.85485 20.8691 87.589
0.005409 21.1388 88.7765
-4.84403 21.4085 89.964
-9.69347 21.6783 91.1515
-14.5429 21.948 92.3391
-19.3923 22.2177 93.5266
-24.2418 22.4874 94.7141
-29.0912 22.7572 95.9016
-33.9407 23.0269 97.0891
-38.7901 23.2966 98.2767
-43.6395 23.5663 99.4642
-48.489 23.836 100.652
-53.3384 24.1058 101.839
-58.1878 24.3755 103.027
126.088 -5.13575 62.2649
121.239 -4.6222 63.3972
116.389 -4.10866 64.5295
111.54 -3.59512 65.6618
106.69 -3.08158 66.7941
101.841 -2.56804 67.9264
96.9917 -2.0545 69.0586
92.1423 -1.54095 70.1909
87.2929 -1.02741 71.3232
82.4435 -0.513871 72.4555
77.5941 -0.000329 73.5878
72.7447 0.513213 74.72
67.8953 1.02676 75.8523
63.0459 1.5403 76.9846
58.1965 2.05384 78.1169
53.3471 2.56738 79.2492
48.4977 3.08092 80.3815
43.6483 3.59446 81.5137
38.7988 4.10801 82.646
33.9494 4.62155 83.7783
29.1 5.13509 84.9106
24.2506 5.64863 86.0429
19.4012 6.16217 87.1751
14.5518 6.67571 88.3074
9.70243 7.18926 89.4397
4.85302 7.7028 90.572
0.003622 8.21634 91.7043
-4.84578 8.72988 92.8365
-9.69519 9.24342 93.9688
-14.5446 9.75696 95.1011
-19.394 10.2705 96.2334
-24.2434 10.784 97.3657
-29.0928 11.2976 98.498
-33.9422 11.8111 99.6302
-38.7916 12.3247 100.763
-43.641 12.8382 101.895
-48.4904 13.3518 103.027
-53.3398 13.8653 104.159
-58.1892 14.3788 105.292
130.941 20.3582 55.2403
130.942 26.8601 53.7672
-63.0368 27.8961 103.478
-63.0364 31.1471 102.741
127.309 21.6181 61.1758
127.31 28.0387 59.7211
122.46 21.8065 62.3818
122.461 28.1458 60.9455
117.611 21.995 63.5877
117.611 28.253 62.1698
112.761 22.1834 64.7936
112.762 28.3602 63.3942
107.912 22.3719 65.9996
107.912 28.4674 64.6185
103.062 22.5603 67.2055
103.063 28.5745 65.8429
98.2127 22.7488 68.4114
98.2136 28.6817 67.0672
93.3633 22.9372 69.6174
93.3641 28.7889 68.2916
88.5138 23.1257 70.8233
88.5146 28.8961 69.5159
83.6644 23.3141 72.0292
83.6652 29.0032 70.7403
78.8149 23.5025 73.2352
78.8157 29.1104 71.9646
73.9655 23.691 74.4411
73.9663 29.2176 73.189
69.1161 23.8794 75.6471
69.1168 29.3248 74.4133
64.2666 24.0679 76.853
64.2673 29.4319 75.6377
59.4172 24.2563 78.0589
59.4179 29.5391 76.862
54.5677 24.4448 79.2649
54.5684 29.6463 78.0864
49.7183 24.6332 80.4708
49.719 29.7535 79.3107
44.8688 24.8217 81.6767
44.8695 29.8606 80.5351
40.0194 25.0101 82.8827
40.02 29.9678 81.7594
35.1699 25.1986 84.0886
35.1706 30.075 82.9838
30.3205 25.387 85.2945
30.3211 30.1822 84.2081
25.471 25.5755 86.5005
25.4717 30.2893 85.4325
20.6216 25.7639 87.7064
20.6222 30.3965 86.6568
15.7721 25.9524 88.9124
15.7727 30.5037 87.8812
10.9227 26.1408 90.1183
10.9233 30.6109 89.1055
6.07322 26.3293 91.3242
6.07383 30.718 90.3299
1.22377 26.5177 92.5302
1.22437 30.8252 91.5542
-3.62568 26.7062 93.7361
-3.62509 30.9324 92.7786
-8.47512 26.8946 94.942
-8.47455 31.0396 94.0029
-13.3246 27.0831 96.148
-13.324 31.1467 95.2273
-18.174 27.2715 97.3539
-18.1735 31.2539 96.4516
-23.0235 27.4599 98.5598
-23.0229 31.3611 97.676
-27.8729 27.6484 99.7658
-27.8724 31.4683 98.9003
-32.7224 27.8368 100.972
-32.7218 31.5754 100.125
-37.5718 28.0253 102.178
-37.5713 31.6826 101.349
-42.4213 28.2137 103.384
-42.4208 31.7898 102.573
-47.2707 28.4022 104.59
-47.2702 31.8969 103.798
-52.1202 28.5906 105.795
-52.1197 32.0041 105.022
-56.9696 28.7791 107.001
-56.9691 32.1113 106.246
124.874 19.4753 51.7166
124.875 25.8959 50.2619
120.024 19.6637 52.9225
120.025 26.0031 51.4863
115.175 19.8522 54.1285
115.176 26.1102 52.7106
110.326 20.0406 55.3344
110.326 26.2174 53.935
105.476 20.2291 56.5404
105.477 26.3246 55.1593
100.627 20.4175 57.7463
100.627 26.4318 56.3837
95.7772 20.606 58.9522
95.778 26.5389 57.608
90.9278 20.7944 60.1582
90.9286 26.6461 58.8324
86.0783 20.9829 61.3641
86.0791 26.7533 60.0567
81.2289 21.1713 62.57
81.2296 26.8605 61.2811
76.3794 21.3598 63.776
76.3802 26.9676 62.5054
71.53 21.5482 64.9819
71.5307 27.0748 63.7298
66.6805 21.7367 66.1878
66.6813 27.182 64.9541
61.8311 21.9251 67.3938
61.8318 27.2892 66.1785
56.9816 22.1136 68.5997
56.9823 27.3963 67.4028
52.1322 22.302 69.8057
52.1329 27.5035 68.6272
47.2827 22.4904 71.0116
47.2834 27.6107 69.8515
42.4333 22.6789 72.2175
42.434 27.7179 71.0759
37.5838 22.8673 73.4235
37.5845 27.825 72.3002
32.7344 23.0558 74.6294
32.735 27.9322 73.5246
27.8849 23.2442 75.8353
27.8856 28.0394 74.7489
23.0355 23.4327 77.0413
23.0361 28.1465 75.9733
18.186 23.6211 78.2472
18.1867 28.2537 77.1976
13.3366 23.8096 79.4531
13.3372 28.3609 78.422
8.48713 23.998 80.6591
8.48775 28.4681 79.6463
3.63768 24.1865 81.865
3.63829 28.5752 80.8707
-1.21176 24.3749 83.071
-1.21117 28.6824 82.095
-6.06121 24.5634 84.2769
-6.06063 28.7896 83.3194
-10.9107 24.7518 85.4828
-10.9101 28.8968 84.5437
-15.7601 24.9403 86.6888
-15.7595 29.0039 85.7681
-20.6096 25.1287 87.8947
-20.609 29.1111 86.9924
-25.459 25.3172 89.1006
-25.4585 29.2183 88.2168
-30.3085 25.5056 90.3066
-30.3079 29.3255 89.4411
-35.1579 25.6941 91.5125
-35.1574 29.4326 90.6655
-40.0074 25.8825 92.7184
-40.0068 29.5398 91.8898
-44.8568 26.071 93.9244
-44.8563 29.647 93.1142
-49.7062 26.2594 95.1303
-49.7058 29.7542 94.3385
-54.5557 26.4479 96.3363
-54.5552 29.8613 95.5629
-59.4051 26.6363 97.5422
-59.4047 29.9685 96.7872
126.093 33.3879 53.5369
121.244 33.4138 54.7796
116.394 33.4397 56.0224
111.545 33.4656 57.2651
106.696 33.4915 58.5079
101.846 33.5174 59.7507
96.9966 33.5433 60.9934
92.1471 33.5692 62.2362
87.2977 33.5951 63.479
82.4482 33.621 64.7217
77.5987 33.6469 65.9645
72.7493 33.6728 67.2073
67.8998 33.6987 68.45
63.0503 33.7246 69.6928
58.2008 33.7505 70.9355
53.3514 33.7764 72.1783
48.5019 33.8023 73.4211
43.6524 33.8282 74.6638
38.803 33.8541 75.9066
33.9535 33.88 77.1494
29.104 33.9059 78.3921
24.2545 33.9318 79.6349
19.4051 33.9577 80.8777
14.5556 33.9836 82.1204
9.70614 34.0095 83.3632
4.85667 34.0354 84.6059
0.007196 34.0613 85.8487
-4.84227 34.0872 87.0915
-9.69175 34.1131 88.3342
-14.5412 34.139 89.577
-19.3907 34.1649 90.8198
-24.2402 34.1908 92.0625
-29.0896 34.2167 93.3053
-33.9391 34.2426 94.5481
-38.7886 34.2685 95.7908
-43.638 34.2944 97.0336
-48.4875 34.3203 98.2763
-53.337 34.3462 99.5191
-58.1865 34.3721 100.762
126.09 7.70547 59.3556
126.089 1.28486 60.8103
121.24 8.05646 60.5247
121.24 1.71713 61.961
116.391 8.40746 61.6938
116.39 2.1494 63.1117
111.542 8.75845 62.8629
111.541 2.58166 64.2623
106.692 9.10944 64.032
106.691 3.01393 65.413
101.843 9.46044 65.2011
101.842 3.4462 66.5637
96.9933 9.81143 66.3702
96.9925 3.87847 67.7144
92.1439 10.1624 67.5393
92.1431 4.31074 68.8651
87.2945 10.5134 68.7085
87.2937 4.74301 70.0158
82.4451 10.8644 69.8776
82.4443 5.17527 71.1665
77.5956 11.2154 71.0467
77.5949 5.60754 72.3172
72.7462 11.5664 72.2158
72.7454 6.03981 73.4679
67.8968 11.9174 73.3849
67.896 6.47208 74.6186
63.0474 12.2684 74.554
63.0466 6.90435 75.7693
58.1979 12.6194 75.7231
58.1972 7.33662 76.92
53.3485 12.9704 76.8922
53.3478 7.76888 78.0707
48.4991 13.3214 78.0613
48.4984 8.20115 79.2214
43.6496 13.6724 79.2304
43.6489 8.63342 80.3721
38.8002 14.0234 80.3995
38.7995 9.06569 81.5228
33.9508 14.3744 81.5687
33.9501 9.49796 82.6735
29.1014 14.7254 82.7378
29.1007 9.93023 83.8242
24.2519 15.0764 83.9069
24.2513 10.3625 84.9749
19.4025 15.4273 85.076
19.4019 10.7948 86.1256
14.5531 15.7783 86.2451
14.5525 11.227 87.2763
9.70367 16.1293 87.4142
9.70305 11.6593 88.4269
4.85424 16.4803 88.5833
4.85363 12.0916 89.5776
0.004813 16.8313 89.7524
0.004217 12.5238 90.7283
-4.84461 17.1823 90.9215
-4.8452 12.9561 91.879
-9.69404 17.5333 92.0906
-9.69461 13.3884 93.0297
-14.5435 17.8843 93.2597
-14.544 13.8206 94.1804
-19.3929 18.2353 94.4288
-19.3934 14.2529 95.3311
-24.2423 18.5863 95.598
-24.2429 14.6852 96.4818
-29.0917 18.9373 96.7671
-29.0923 15.1174 97.6325
-33.9412 19.2883 97.9362
-33.9417 15.5497 98.7832
-38.7906 19.6393 99.1053
-38.7911 15.982 99.9339
-43.64 19.9903 100.274
-43.6405 16.4142 101.085
-48.4894 20.3413 101.444
-48.4899 16.8465 102.235
-53.3389 20.6923 102.613
-53.3393 17.2788 103.386
-58.1883 21.0433 103.782
-58.1888 17.7111 104.537
126.092 20.5467 56.4462
126.093 26.9673 54.9915
121.242 20.7351 57.6522
121.243 27.0745 56.2159
116.393 20.9236 58.8581
116.394 27.1816 57.4402
111.543 21.112 60.064
111.544 27.2888 58.6646
106.694 21.3005 61.27
106.695 27.396 59.8889
101.844 21.4889 62.4759
101.845 27.5032 61.1133
96.995 21.6774 63.6818
96.9958 27.6103 62.3376
92.1455 21.8658 64.8878
92.1463 27.7175 63.562
87.2961 22.0543 66.0937
87.2969 27.8247 64.7863
82.4466 22.2427 67.2996
82.4474 27.9319 66.0107
77.5972 22.4312 68.5056
77.598 28.039 67.235
72.7477 22.6196 69.7115
72.7485 28.1462 68.4594
67.8983 22.8081 70.9175
67.899 28.2534 69.6837
63.0488 22.9965 72.1234
63.0496 28.3605 70.9081
58.1994 23.1849 73.3293
58.2001 28.4677 72.1324
53.3499 23.3734 74.5353
53.3507 28.5749 73.3568
48.5005 23.5618 75.7412
48.5012 28.6821 74.5811
43.651 23.7503 76.9471
43.6517 28.7892 75.8055
38.8016 23.9387 78.1531
38.8023 28.8964 77.0298
33.9521 24.1272 79.359
33.9528 29.0036 78.2542
29.1027 24.3156 80.5649
29.1034 29.1108 79.4785
24.2532 24.5041 81.7709
24.2539 29.2179 80.7029
19.4038 24.6925 82.9768
19.4044 29.3251 81.9272
14.5543 24.881 84.1827
14.555 29.4323 83.1516
9.7049 25.0694 85.3887
9.70552 29.5395 84.3759
4.85545 25.2579 86.5946
4.85606 29.6466 85.6003
0.006004 25.4463 87.8006
0.0066 29.7538 86.8246
-4.84344 25.6348 89.0065
-4.84286 29.861 88.049
-9.69289 25.8232 90.2124
-9.69232 29.9682 89.2733
-14.5423 26.0117 91.4184
-14.5418 30.0753 90.4977
-19.3918 26.2001 92.6243
-19.3912 30.1825 91.722
-24.2412 26.3886 93.8302
-24.2407 30.2897 92.9464
-29.0907 26.577 95.0362
-29.0902 30.3969 94.1707
-33.9401 26.7655 96.2421
-33.9396 30.504 95.3951
-38.7896 26.9539 97.448
-38.7891 30.6112 96.6194
-43.639 27.1423 98.654
-43.6385 30.7184 97.8438
-48.4885 27.3308 99.8599
-48.488 30.8256 99.0681
-53.3379 27.5192 101.066
-53.3375 30.9327 100.292
-58.1874 27.7077 102.272
-58.1869 31.0399 101.517
-300 10 -30
-300 -10 -30
-300 -10 0
-300 10 0
-250 -10 -30
-250 10 -30
-300 10 -50
-300 -10 -50
-250 10 -50
-250 -10 -50
-300 5 -30
-300 0 -30
-300 -5 -30
-300 -10 -25
-300 -10 -20
-300 -10 -15
-300 -10 -10
-300 -10 -5
-300 -5 0
-300 0 0
-300 5 0
-300 10 -5
-300 10 -10
-300 10 -15
-300 10 -20
-300 10 -25
-250 -5 -30
-250 0 -30
-250 5 -30
-250 -10 -5
-250 -10 -10
-250 -10 -15
-250 -10 -20
-250 -10 -25
-250 10 -25
-250 10 -20
-250 10 -15
-250 10 -10
-250 10 -5
-295 10 0
-290 10 0
-285 10 0
-280 10 0
-275 10 0
-270 10 0
-265 10 0
-260 10 0
-255 10 0
-255 10 -30
-260 10 -30
-265 10 -30
-270 10 -30
-275 10 -30
-280 10 -30
-285 10 -30
-290 10 -30
-295 10 -30
-255 -10 0
-260 -10 0
-265 -10 0
-270 -10 0
-275 -10 0
-280 -10 0
-285 -10 0
-290 -10 0
-295 -10 0
-295 -10 -30
-290 -10 -30
-285 -10 -30
-280 -10 -30
-275 -10 -30
-270 -10 -30
-265 -10 -30
-260 -10 -30
-255 -10 -30
-300 10 -35
-300 10 -40
-300 10 -45
-300 5 -50
-300 0 -50
-300 -5 -50
-300 -10 -45
-300 -10 -40
-300 -10 -35
-250 10 -45
-250 10 -40
-250 10 -35
-250 -5 -50
-250 0 -50
-250 5 -50
-250 -10 -35
-250 -10 -40
-250 -10 -45
-295 -10 -50
-290 -10 -50
-285 -10 -50
-280 -10 -50
-275 -10 -50
-270 -10 -50
-265 -10 -50
-260 -10 -50
-255 -10 -50
-255 10 -50
-260 10 -50
-265 10 -50
-270 10 -50
-275 10 -50
-280 10 -50
-285 10 -50
-290 10 -50
-295 10 -50
-300 5 -25
-300 0 -25
-300 -5 -25
-300 5 -20
-300 0 -20
-300 -5 -20
-300 5 -15
-300 0 -15
-300 -5 -15
-300 5 -10
-300 0 -10
-300 -5 -10
-300 5 -5
-300 0 -5
-300 -5 -5
-250 5 -25
-250 0 -25
-250 -5 -25
-250 5 -20
-250 0 -20
-250 -5 -20
-250 5 -15
-250 0 -15
-250 -5 -15
-250 5 -10
-250 0 -10
-250 -5 -10
-250 5 -5
-250 0 -5
-250 -5 -5
-295 10 -25
-295 10 -20
-295 10 -15
-295 10 -10
-295 10 -5
-290 10 -25
-290 10 -20
-290 10 -15
-290 10 -10
-290 10 -5
-285 10 -25
-285 10 -20
-285 10 -15
-285 10 -10
-285 10 -5
-280 10 -25
-280 10 -20
-280 10 -15
-280 10 -10
-280 10 -5
-275 10 -25
-275 10 -20
-275 10 -15
-275 10 -10
-275 10 -5
-270 10 -25
-270 10 -20
-270 10 -15
-270 10 -10
-270 10 -5
-265 10 -25
-265 10 -20
-265 10 -15
-265 10 -10
-265 10 -5
-260 10 -25
-260 10 -20
-260 10 -15
-260 10 -10
-260 10 -5
-255 10 -25
-255 10 -20
-255 10 -15
-255 10 -10
-255 10 -5
-295 -10 -25
-295 -10 -20
-295 -10 -15
-295 -10 -10
-295 -10 -5
-290 -10 -25
-290 -10 -20
-290 -10 -15
-290 -10 -10
-290 -10 -5
-285 -10 -25
-285 -10 -20
-285 -10 -15
-285 -10 -10
-285 -10 -5
-280 -10 -25
-280 -10 -20
-280 -10 -15
-280 -10 -10
-280 -10 -5
-275 -10 -25
-275 -10 -20
-275 -10 -15
-275 -10 -10
-275 -10 -5
-270 -10 -25
-270 -10 -20
-270 -10 -15
-270 -10 -10
-270 -10 -5
-265 -10 -25
-265 -10 -20
-265 -10 -15
-265 -10 -10
-265 -10 -5
-260 -10 -25
-260 -10 -20
-260 -10 -15
-260 -10 -10
-260 -10 -5
-255 -10 -25
-255 -10 -20
-255 -10 -15
-255 -10 -10
-255 -10 -5
-295 5 -30
-295 0 -30
-295 -5 -30
-290 5 -30
-290 0 -30
-290 -5 -30
-285 5 -30
-285 0 -30
-285 -5 -30
-280 5 -30
-280 0 -30
-280 -5 -30
-275 5 -30
-275 0 -30
-275 -5 -30
-270 5 -30
-270 0 -30
-270 -5 -30
-265 5 -30
-265 0 -30
-265 -5 -30
-260 5 -30
-260 0 -30
-260 -5 -30
-255 5 -30
-255 0 -30
-255 -5 -30
-295 5 0
-295 0 0
-295 -5 0
-290 5 0
-290 0 0
-290 -5 0
-285 5 0
-285 0 0
-285 -5 0
-280 5 0
-280 0 0
-280 -5 0
-275 5 0
-275 0 0
-275 -5 0
-270 5 0
-270 0 0
-270 -5 0
-265 5 0
-265 0 0
-265 -5 0
-260 5 0
-260 0 0
-260 -5 0
-255 5 0
-255 0 0
-255 -5 0
-300 -5 -35
-300 0 -35
-300 5 -35
-300 -5 -40
-300 0 -40
-300 5 -40
-300 -5 -45
-300 0 -45
-300 5 -45
-250 -5 -35
-250 0 -35
-250 5 -35
-250 -5 -40
-250 0 -40
-250 5 -40
-250 -5 -45
-250 0 -45
-250 5 -45
-295 -10 -35
-295 -10 -40
-295 -10 -45
-290 -10 -35
-290 -10 -40
-290 -10 -45
-285 -10 -35
-285 -10 -40
-285 -10 -45
-280 -10 -35
-280 -10 -40
-280 -10 -45
-275 -10 -35
-275 -10 -40
-275 -10 -45
-270 -10 -35
-270 -10 -40
-270 -10 -45
-265 -10 -35
-265 -10 -40
-265 -10 -45
-260 -10 -35
-260 -10 -40
-260 -10 -45
-255 -10 -35
-255 -10 -40
-255 -10 -45
-295 10 -35
-295 10 -40
-295 10 -45
-290 10 -35
-290 10 -40
-290 10 -45
-285 10 -35
-285 10 -40
-285 10 -45
-280 10 -35
-280 10 -40
-280 10 -45
-275 10 -35
-275 10 -40
-275 10 -45
-270 10 -35
-270 10 -40
-270 10 -45
-265 10 -35
-265 10 -40
-265 10 -45
-260 10 -35
-260 10 -40
-260 10 -45
-255 10 -35
-255 10 -40
-255 10 -45
-295 -5 -50
-295 0 -50
-295 5 -50
-290 -5 -50
-290 0 -50
-290 5 -50
-285 -5 -50
-285 0 -50
-285 5 -50
-280 -5 -50
-280 0 -50
-280 5 -50
-275 -5 -50
-275 0 -50
-275 5 -50
-270 -5 -50
-270 0 -50
-270 5 -50
-265 -5 -50
-265 0 -50
-265 5 -50
-260 -5 -50
-260 0 -50
-260 5 -50
-255 -5 -50
-255 0 -50
-255 5 -50
-295 5 -25
-295 0 -25
-295 -5 -25
-295 5 -20
-295 0 -20
-295 -5 -20
-295 5 -15
-295 0 -15
-295 -5 -15
-295 5 -10
-295 0 -10
-295 -5 -10
-295 5 -5
-295 0 -5
-295 -5 -5
-290 5 -25
-290 0 -25
-290 -5 -25
-290 5 -20
-290 0 -20
-290 -5 -20
-290 5 -15
-290 0 -15
-290 -5 -15
-290 5 -10
-290 0 -10
-290 -5 -10
-290 5 -5
-290 0 -5
-290 -5 -5
-285 5 -25
-285 0 -25
-285 -5 -25
-285 5 -20
-285 0 -20
-285 -5 -20
-285 5 -15
-285 0 -15
-285 -5 -15
-285 5 -10
-285 0 -10
-285 -5 -10
-285 5 -5
-285 0 -5
-285 -5 -5
-280 5 -25
-280 0 -25
-280 -5 -25
-280 5 -20
-280 0 -20
-280 -5 -20
-280 5 -15
-280 0 -15
-280 -5 -15
-280 5 -10
-280 0 -10
-280 -5 -10
-280 5 -5
-280 0 -5
-280 -5 -5
-275 5 -25
-275 0 -25
-275 -5 -25
-275 5 -20
-275 0 -20
-275 -5 -20
-275 5 -15
-275 0 -15
-275 -5 -15
-275 5 -10
-275 0 -10
-275 -5 -10
-275 5 -5
-275 0 -5
-275 -5 -5
-270 5 -25
-270 0 -25
-270 -5 -25
-270 5 -20
-270 0 -20
-270 -5 -20
-270 5 -15
-270 0 -15
-270 -5 -15
-270 5 -10
-270 0 -10
-270 -5 -10
-270 5 -5
-270 0 -5
-270 -5 -5
-265 5 -25
-265 0 -25
-265 -5 -25
-265 5 -20
-265 0 -20
-265 -5 -20
-265 5 -15
-265 0 -15
-265 -5 -15
-265 5 -10
-265 0 -10
-265 -5 -10
-265 5 -5
-265 0 -5
-265 -5 -5
-260 5 -25
-260 0 -25
-260 -5 -25
-260 5 -20
-260 0 -20
-260 -5 -20
-260 5 -15
-260 0 -15
-260 -5 -15
-260 5 -10
-260 0 -10
-260 -5 -10
-260 5 -5
-260 0 -5
-260 -5 -5
-255 5 -25
-255 0 -25
-255 -5 -25
-255 5 -20
-255 0 -20
-255 -5 -20
-255 5 -15
-255 0 -15
-255 -5 -15
-255 5 -10
-255 0 -10
-255 -5 -10
-255 5 -5
-255 0 -5
-255 -5 -5
-295 -5 -35
-295 0 -35
-295 5 -35
-295 -5 -40
-295 0 -40
-295 5 -40
-295 -5 -45
-295 0 -45
-295 5 -45
-290 -5 -35
-290 0 -35
-290 5 -35
-290 -5 -40
-290 0 -40
-290 5 -40
-290 -5 -45
-290 0 -45
-290 5 -45
-285 -5 -35
-285 0 -35
-285 5 -35
-285 -5 -40
-285 0 -40
-285 5 -40
-285 -5 -45
-285 0 -45
-285 5 -45
-280 -5 -35
-280 0 -35
-280 5 -35
-280 -5 -40
-280 0 -40
-280 5 -40
-280 -5 -45
-280 0 -45
-280 5 -45
-275 -5 -35
-275 0 -35
-275 5 -35
-275 -5 -40
-275 0 -40
-275 5 -40
-275 -5 -45
-275 0 -45
-275 5 -45
-270 -5 -35
-270 0 -35
-270 5 -35
-270 -5 -40
-270 0 -40
-270 5 -40
-270 -5 -45
-270 0 -45
-270 5 -45
-265 -5 -35
-265 0 -35
-265 5 -35
-265 -5 -40
-265 0 -40
-265 5 -40
-265 -5 -45
-265 0 -45
-265 5 -45
-260 -5 -35
-260 0 -35
-260 5 -35
-260 -5 -40
-260 0 -40
-260 5 -40
-260 -5 -45
-260 0 -45
-260 5 -45
-255 -5 -35
-255 0 -35
-255 5 -35
-255 -5 -40
-255 0 -40
-255 5 -40
-255 -5 -45
-255 0 -45
-255 5 -45
250 10 -30
250 -10 -30
300 -10 -30
300 -10 0
300 10 0
300 10 -30
250 10 -50
250 -10 -50
300 10 -50
300 -10 -50
250 5 -30
250 0 -30
250 -5 -30
250 -10 -25
250 -10 -20
250 -10 -15
250 -10 -10
250 -10 -5
250 10 -5
250 10 -10
250 10 -15
250 10 -20
250 10 -25
300 -5 -30
300 0 -30
300 5 -30
300 -10 -5
300 -10 -10
300 -10 -15
300 -10 -20
300 -10 -25
300 5 0
300 0 0
300 -5 0
300 10 -25
300 10 -20
300 10 -15
300 10 -10
300 10 -5
255 10 0
260 10 0
265 10 0
270 10 0
275 10 0
280 10 0
285 10 0
290 10 0
295 10 0
295 10 -30
290 10 -30
285 10 -30
280 10 -30
275 10 -30
270 10 -30
265 10 -30
260 10 -30
255 10 -30
295 -10 0
290 -10 0
285 -10 0
280 -10 0
275 -10 0
270 -10 0
265 -10 0
260 -10 0
255 -10 0
255 -10 -30
260 -10 -30
265 -10 -30
270 -10 -30
275 -10 -30
280 -10 -30
285 -10 -30
290 -10 -30
295 -10 -30
250 10 -35
250 10 -40
250 10 -45
250 5 -50
250 0 -50
250 -5 -50
250 -10 -45
250 -10 -40
250 -10 -35
300 10 -45
300 10 -40
300 10 -35
300 -5 -50
300 0 -50
300 5 -50
300 -10 -35
300 -10 -40
300 -10 -45
255 -10 -50
260 -10 -50
265 -10 -50
270 -10 -50
275 -10 -50
280 -10 -50
285 -10 -50
290 -10 -50
295 -10 -50
295 10 -50
290 10 -50
285 10 -50
280 10 -50
275 10 -50
270 10 -50
265 10 -50
260 10 -50
255 10 -50
250 5 -25
250 0 -25
250 -5 -25
250 5 -20
250 0 -20
250 -5 -20
250 5 -15
250 0 -15
250 -5 -15
250 5 -10
250 0 -10
250 -5 -10
250 5 -5
250 0 -5
250 -5 -5
300 5 -25
300 0 -25
300 -5 -25
300 5 -20
300 0 -20
300 -5 -20
300 5 -15
300 0 -15
300 -5 -15
300 5 -10
300 0 -10
300 -5 -10
300 5 -5
300 0 -5
300 -5 -5
255 10 -25
255 10 -20
255 10 -15
255 10 -10
255 10 -5
260 10 -25
260 10 -20
260 10 -15
260 10 -10
260 10 -5
265 10 -25
265 10 -20
265 10 -15
265 10 -10
265 10 -5
270 10 -25
270 10 -20
270 10 -15
270 10 -10
270 10 -5
275 10 -25
275 10 -20
275 10 -15
275 10 -10
275 10 -5
280 10 -25
280 10 -20
280 10 -15
280 10 -10
280 10 -5
285 10 -25
285 10 -20
285 10 -15
285 10 -10
285 10 -5
290 10 -25
290 10 -20
290 10 -15
290 10 -10
290 10 -5
295 10 -25
295 10 -20
295 10 -15
295 10 -10
295 10 -5
255 -10 -25
255 -10 -20
255 -10 -15
255 -10 -10
255 -10 -5
260 -10 -25
260 -10 -20
260 -10 -15
260 -10 -10
260 -10 -5
265 -10 -25
265 -10 -20
265 -10 -15
265 -10 -10
265 -10 -5
270 -10 -25
270 -10 -20
270 -10 -15
270 -10 -10
270 -10 -5
275 -10 -25
275 -10 -20
275 -10 -15
275 -10 -10
275 -10 -5
280 -10 -25
280 -10 -20
280 -10 -15
280 -10 -10
280 -10 -5
285 -10 -25
285 -10 -20
285 -10 -15
285 -10 -10
285 -10 -5
290 -10 -25
290 -10 -20
290 -10 -15
290 -10 -10
290 -10 -5
295 -10 -25
295 -10 -20
295 -10 -15
295 -10 -10
295 -10 -5
255 5 -30
255 0 -30
255 -5 -30
260 5 -30
260 0 -30
260 -5 -30
265 5 -30
265 0 -30
265 -5 -30
270 5 -30
270 0 -30
270 -5 -30
275 5 -30
275 0 -30
275 -5 -30
280 5 -30
280 0 -30
280 -5 -30
285 5 -30
285 0 -30
285 -5 -30
290 5 -30
290 0 -30
290 -5 -30
295 5 -30
295 0 -30
295 -5 -30
255 5 0
255 0 0
255 -5 0
260 5 0
260 0 0
260 -5 0
265 5 0
265 0 0
265 -5 0
270 5 0
270 0 0
270 -5 0
275 5 0
275 0 0
275 -5 0
280 5 0
280 0 0
280 -5 0
285 5 0
285 0 0
285 -5 0
290 5 0
290 0 0
290 -5 0
295 5 0
295 0 0
295 -5 0
250 -5 -35
250 0 -35
250 5 -35
250 -5 -40
250 0 -40
250 5 -40
250 -5 -45
250 0 -45
250 5 -45
300 -5 -35
300 0 -35
300 5 -35
300 -5 -40
300 0 -40
300 5 -40
300 -5 -45
300 0 -45
300 5 -45
255 -10 -35
255 -10 -40
255 -10 -45
260 -10 -35
260 -10 -40
260 -10 -45
265 -10 -35
265 -10 -40
265 -10 -45
270 -10 -35
270 -10 -40
270 -10 -45
275 -10 -35
275 -10 -40
275 -10 -45
280 -10 -35
280 -10 -40
280 -10 -45
285 -10 -35
285 -10 -40
285 -10 -45
290 -10 -35
290 -10 -40
290 -10 -45
295 -10 -35
295 -10 -40
295 -10 -45
255 10 -35
255 10 -40
255 10 -45
260 10 -35
260 10 -40
260 10 -45
265 10 -35
265 10 -40
265 10 -45
270 10 -35
270 10 -40
270 10 -45
275 10 -35
275 10 -40
275 10 -45
280 10 -35
280 10 -40
280 10 -45
285 10 -35
285 10 -40
285 10 -45
290 10 -35
290 10 -40
290 10 -45
295 10 -35
295 10 -40
295 10 -45
255 -5 -50
255 0 -50
255 5 -50
260 -5 -50
260 0 -50
260 5 -50
265 -5 -50
265 0 -50
265 5 -50
270 -5 -50
270 0 -50
270 5 -50
275 -5 -50
275 0 -50
275 5 -50
280 -5 -50
280 0 -50
280 5 -50
285 -5 -50
285 0 -50
285 5 -50
290 -5 -50
290 0 -50
290 5 -50
295 -5 -50
295 0 -50
295 5 -50
255 5 -25
255 0 -25
255 -5 -25
255 5 -20
255 0 -20
255 -5 -20
255 5 -15
255 0 -15
255 -5 -15
255 5 -10
255 0 -10
255 -5 -10
255 5 -5
255 0 -5
255 -5 -5
260 5 -25
260 0 -25
260 -5 -25
260 5 -20
260 0 -20
260 -5 -20
260 5 -15
260 0 -15
260 -5 -15
260 5 -10
260 0 -10
260 -5 -10
260 5 -5
260 0 -5
260 -5 -5
265 5 -25
265 0 -25
265 -5 -25
265 5 -20
265 0 -20
265 -5 -20
265 5 -15
265 0 -15
265 -5 -15
265 5 -10
265 0 -10
265 -5 -10
265 5 -5
265 0 -5
265 -5 -5
270 5 -25
270 0 -25
270 -5 -25
270 5 -20
270 0 -20
270 -5 -20
270 5 -15
270 0 -15
270 -5 -15
270 5 -10
270 0 -10
270 -5 -10
270 5 -5
270 0 -5
270 -5 -5
275 5 -25
275 0 -25
275 -5 -25
275 5 -20
275 0 -20
275 -5 -20
275 5 -15
275 0 -15
275 -5 -15
275 5 -10
275 0 -10
275 -5 -10
275 5 -5
275 0 -5
275 -5 -5
280 5 -25
280 0 -25
280 -5 -25
280 5 -20
280 0 -20
280 -5 -20
280 5 -15
280 0 -15
280 -5 -15
280 5 -10
280 0 -10
280 -5 -10
280 5 -5
280 0 -5
280 -5 -5
285 5 -25
285 0 -25
285 -5 -25
285 5 -20
285 0 -20
285 -5 -20
285 5 -15
285 0 -15
285 -5 -15
285 5 -10
285 0 -10
285 -5 -10
285 5 -5
285 0 -5
285 -5 -5
290 5 -25
290 0 -25
290 -5 -25
290 5 -20
290 0 -20
290 -5 -20
290 5 -15
290 0 -15
290 -5 -15
290 5 -10
290 0 -10
290 -5 -10
290 5 -5
290 0 -5
290 -5 -5
295 5 -25
295 0 -25
295 -5 -25
295 5 -20
295 0 -20
295 -5 -20
295 5 -15
295 0 -15
295 -5 -15
295 5 -10
295 0 -10
295 -5 -10
295 5 -5
295 0 -5
295 -5 -5
255 -5 -35
255 0 -35
255 5 -35
255 -5 -40
255 0 -40
255 5 -40
255 -5 -45
255 0 -45
255 5 -45
260 -5 -35
260 0 -35
260 5 -35
260 -5 -40
260 0 -40
260 5 -40
260 -5 -45
260 0 -45
260 5 -45
265 -5 -35
265 0 -35
265 5 -35
265 -5 -40
265 0 -40
265 5 -40
265 -5 -45
265 0 -45
265 5 -45
270 -5 -35
270 0 -35
270 5 -35
270 -5 -40
270 0 -40
270 5 -40
270 -5 -45
270 0 -45
270 5 -45
275 -5 -35
275 0 -35
275 5 -35
275 -5 -40
275 0 -40
275 5 -40
275 -5 -45
275 0 -45
275 5 -45
280 -5 -35
280 0 -35
280 5 -35
280 -5 -40
280 0 -40
280 5 -40
280 -5 -45
280 0 -45
280 5 -45
285 -5 -35
285 0 -35
285 5 -35
285 -5 -40
285 0 -40
285 5 -40
285 -5 -45
285 0 -45
285 5 -45
290 -5 -35
290 0 -35
290 5 -35
290 -5 -40
290 0 -40
290 5 -40
290 -5 -45
290 0 -45
290 5 -45
295 -5 -35
295 0 -35
295 5 -35
295 -5 -40
295 0 -40
295 5 -40
295 -5 -45
295 0 -45
295 5 -45
-0.1998 181.64 -87.2199
-0.14985 133.73 -72.915
-0.04995 37.91 -44.305
-0.0999 85.8199 -58.61
0.04995 -57.91 -15.695
0 -10 -30
0.0999 -105.82 -1.39003
0.14985 -153.73 12.915
0.1998 -201.64 27.2199
-0.203643 185.325 -88.3203
-0.207485 189.011 -89.4207
-0.211327 192.696 -90.5211
-0.215169 196.381 -91.6215
-0.219012 200.067 -92.7219
-0.222854 203.752 -93.8222
-0.226696 207.438 -94.9226
-0.230539 211.123 -96.023
-0.234381 214.808 -97.1234
-0.238223 218.494 -98.2238
-0.242066 222.179 -99.3242
-0.245908 225.864 -100.425
26.067 187.631 -78.897
24.1872 190.625 -80.5133
22.3075 193.619 -82.1296
20.4277 196.614 -83.7459
18.5479 199.608 -85.3621
16.6682 202.602 -86.9784
14.7884 205.596 -88.5947
12.9086 208.59 -90.211
11.0289 211.585 -91.8273
9.14909 214.579 -93.4435
7.26932 217.573 -95.0598
5.38956 220.567 -96.6761
3.50979 223.561 -98.2924
1.63002 226.556 -99.9087
1.72326 137.124 -73.206
3.59637 140.517 -73.4971
5.46948 143.911 -73.7881
7.34258 147.305 -74.0792
9.21569 150.699 -74.3702
11.0888 154.093 -74.6613
12.9619 157.486 -74.9523
14.835 160.88 -75.2434
16.7081 164.274 -75.5344
18.5812 167.668 -75.8255
20.4543 171.062 -76.1165
22.3275 174.455 -76.4076
24.2006 177.849 -76.6986
26.0737 181.243 -76.9897
3.36847 134.105 -71.6726
6.8868 134.479 -70.4302
10.4051 134.854 -69.1878
13.9234 135.228 -67.9454
17.4418 135.603 -66.703
20.9601 135.978 -65.4605
24.4784 136.352 -64.2181
24.4285 184.262 -78.5231
20.9101 183.888 -79.7655
17.3918 183.513 -81.0079
13.8735 183.138 -82.2503
10.3552 182.764 -83.4927
6.83685 182.389 -84.7351
3.31852 182.014 -85.9775
26.1669 91.8111 -50.287
24.2871 94.8053 -51.9033
22.4074 97.7995 -53.5196
20.5276 100.794 -55.1359
18.6478 103.788 -56.7522
16.7681 106.782 -58.3684
14.8883 109.776 -59.9847
13.0085 112.771 -61.601
11.1288 115.765 -63.2173
9.24899 118.759 -64.8336
7.36922 121.753 -66.4498
5.48946 124.747 -68.0661
3.60969 127.741 -69.6824
1.72992 130.736 -71.2987
1.82316 41.3038 -44.596
3.69627 44.6976 -44.8871
5.56938 48.0914 -45.1781
7.44248 51.4852 -45.4692
9.31559 54.879 -45.7602
11.1887 58.2728 -46.0513
13.0618 61.6666 -46.3423
14.9349 65.0603 -46.6334
16.808 68.4541 -46.9244
18.6811 71.8479 -47.2155
20.5542 75.2417 -47.5065
22.4274 78.6355 -47.7976
24.3005 82.0293 -48.0887
26.1736 85.4231 -48.3797
3.46837 38.2846 -43.0626
6.9867 38.6592 -41.8202
10.505 39.0338 -40.5778
14.0233 39.4085 -39.3354
17.5417 39.7831 -38.093
21.06 40.1577 -36.8506
24.5783 40.5323 -35.6082
-0.153692 137.415 -74.0153
-0.157535 141.101 -75.1157
-0.161377 144.786 -76.2161
-0.165219 148.471 -77.3165
-0.169062 152.157 -78.4169
-0.172904 155.842 -79.5173
-0.176746 159.528 -80.6176
-0.180589 163.213 -81.718
-0.184431 166.898 -82.8184
-0.188273 170.584 -83.9188
-0.192116 174.269 -85.0192
-0.195958 177.954 -86.1196
-0.103742 89.5053 -59.7104
-0.107585 93.1907 -60.8107
-0.111427 96.8761 -61.9111
-0.115269 100.561 -63.0115
-0.119112 104.247 -64.1119
-0.122954 107.932 -65.2123
-0.126796 111.618 -66.3127
-0.130639 115.303 -67.413
-0.134481 118.988 -68.5134
-0.138323 122.674 -69.6138
-0.142166 126.359 -70.7142
-0.146008 130.045 -71.8146
24.5284 88.4423 -49.9132
21.01 88.0677 -51.1556
17.4917 87.6931 -52.398
13.9734 87.3184 -53.6404
10.4551 86.9438 -54.8828
6.93675 86.5692 -56.1252
3.41842 86.1946 -57.3676
26.2668 -4.0088 -21.6771
24.387 -1.0146 -23.2933
22.5073 1.9796 -24.9096
20.6275 4.97379 -26.5259
18.7477 7.96799 -28.1422
16.868 10.9622 -29.7585
14.9882 13.9564 -31.3747
13.1084 16.9506 -32.991
11.2287 19.9448 -34.6073
9.34889 22.939 -36.2236
7.46912 25.9332 -37.8399
5.58936 28.9274 -39.4561
3.70959 31.9216 -41.0724
1.82982 34.9158 -42.6887
26.2735 -10.3968 -19.7697
24.4004 -13.7906 -19.4787
22.5273 -17.1844 -19.1876
20.6541 -20.5782 -18.8966
18.781 -23.972 -18.6055
16.9079 -27.3658 -18.3145
15.0348 -30.7596 -18.0234
13.1617 -34.1534 -17.7324
11.2886 -37.5472 -17.4413
9.41549 -40.941 -17.1503
7.54238 -44.3348 -16.8592
5.66928 -47.7286 -16.5682
3.79617 -51.1224 -16.2771
1.92306 -54.5162 -15.9861
0.003842 -13.6854 -28.8996
0.007685 -17.3708 -27.7992
0.011527 -21.0561 -26.6988
0.015369 -24.7415 -25.5985
0.019212 -28.4269 -24.4981
0.023054 -32.1123 -23.3977
0.026896 -35.7977 -22.2973
0.030738 -39.4831 -21.1969
0.034581 -43.1684 -20.0965
0.038423 -46.8538 -18.9962
0.042265 -50.5392 -17.8958
0.046108 -54.2246 -16.7954
3.51832 -9.62538 -28.7576
7.03665 -9.25075 -27.5152
10.555 -8.87612 -26.2728
14.0733 -8.5015 -25.0304
17.5916 -8.12687 -23.788
21.1099 -7.75225 -22.5456
24.6283 -7.37762 -21.3032
-0.053792 41.5953 -45.4054
-0.057635 45.2807 -46.5058
-0.061477 48.9661 -47.6061
-0.065319 52.6515 -48.7065
-0.069162 56.3369 -49.8069
-0.073004 60.0223 -50.9073
-0.076846 63.7076 -52.0077
-0.080689 67.393 -53.1081
-0.084531 71.0784 -54.2084
-0.088373 74.7638 -55.3088
-0.092215 78.4492 -56.4092
-0.096058 82.1346 -57.5096
-0.003842 -6.31462 -31.1004
-0.007685 -2.62924 -32.2008
-0.011527 1.05615 -33.3012
-0.015369 4.74153 -34.4015
-0.019212 8.42691 -35.5019
-0.023054 12.1123 -36.6023
-0.026896 15.7977 -37.7027
-0.030738 19.4831 -38.8031
-0.034581 23.1684 -39.9035
-0.038423 26.8538 -41.0038
-0.042265 30.5392 -42.1042
-0.046108 34.2246 -43.2046
0.053792 -61.5953 -14.5946
0.057635 -65.2807 -13.4942
0.061477 -68.9661 -12.3939
0.065319 -72.6515 -11.2935
0.069162 -76.3369 -10.1931
0.073004 -80.0223 -9.09271
0.076846 -83.7076 -7.99233
0.080689 -87.393 -6.89194
0.084531 -91.0784 -5.79156
0.088373 -94.7638 -4.69118
0.092215 -98.4492 -3.59079
0.096058 -102.135 -2.49041
1.92972 -60.9042 -14.0787
3.80949 -63.8984 -12.4625
5.68926 -66.8926 -10.8462
7.56902 -69.8868 -9.22989
9.44879 -72.881 -7.61361
11.3286 -75.8752 -5.99733
13.2083 -78.8694 -4.38105
15.0881 -81.8635 -2.76477
16.9679 -84.8577 -1.14849
18.8476 -87.8519 0.467791
20.7274 -90.8461 2.08407
22.6072 -93.8403 3.70035
24.4869 -96.8345 5.31663
26.3667 -99.8287 6.93291
24.7282 -103.198 7.30679
21.2098 -103.572 6.06439
17.6915 -103.947 4.82199
14.1732 -104.321 3.57958
10.6549 -104.696 2.33718
7.13654 -105.071 1.09478
3.61822 -105.445 -0.147624
0.103742 -109.505 -0.289643
0.107585 -113.191 0.810741
0.111427 -116.876 1.91112
0.115269 -120.561 3.01151
0.119112 -124.247 4.11189
0.122954 -127.932 5.21227
0.126796 -131.618 6.31266
0.130639 -135.303 7.41304
0.134481 -138.988 8.51343
0.138323 -142.674 9.61381
0.142166 -146.359 10.7142
0.146008 -150.045 11.8146
3.56827 -57.5353 -14.4526
7.08659 -57.1607 -13.2102
10.6049 -56.7861 -11.9678
14.1232 -56.4115 -10.7254
17.6416 -56.0368 -9.483
21.1599 -55.6622 -8.2406
24.6782 -55.2876 -6.9982
26.3734 -106.217 8.84024
24.5003 -109.611 9.13129
22.6272 -113.004 9.42235
20.754 -116.398 9.7134
18.8809 -119.792 10.0044
17.0078 -123.186 10.2955
15.1347 -126.58 10.5866
13.2616 -129.973 10.8776
11.3885 -133.367 11.1687
9.51539 -136.761 11.4597
7.64229 -140.155 11.7508
5.76918 -143.549 12.0418
3.89607 -146.942 12.3329
2.02296 -150.336 12.6239
0.153692 -157.415 14.0153
0.157535 -161.101 15.1157
0.161377 -164.786 16.2161
0.165219 -168.471 17.3165
0.169062 -172.157 18.4169
0.172904 -175.842 19.5173
0.176746 -179.528 20.6176
0.180589 -183.213 21.718
0.184431 -186.898 22.8184
0.188273 -190.584 23.9188
0.192116 -194.269 25.0192
0.195958 -197.954 26.1196
2.02962 -156.724 14.5312
3.90939 -159.718 16.1475
5.78916 -162.712 17.7638
7.66892 -165.707 19.3801
9.54869 -168.701 20.9964
11.4285 -171.695 22.6126
13.3082 -174.689 24.2289
15.188 -177.683 25.8452
17.0678 -180.678 27.4615
18.9475 -183.672 29.0778
20.8273 -186.666 30.694
22.7071 -189.66 32.3103
24.5868 -192.654 33.9266
26.4666 -195.649 35.5429
24.8281 -199.017 35.9168
21.3097 -199.392 34.6744
17.7914 -199.767 33.432
14.2731 -200.141 32.1896
10.7548 -200.516 30.9472
7.23644 -200.891 29.7048
3.71812 -201.265 28.4624
0.203643 -205.325 28.3203
0.207485 -209.011 29.4207
0.211327 -212.696 30.5211
0.215169 -216.381 31.6215
0.219012 -220.067 32.7219
0.222854 -223.752 33.8222
0.226696 -227.438 34.9226
0.230539 -231.123 36.023
0.234381 -234.808 37.1234
0.238223 -238.494 38.2238
0.242066 -242.179 39.3242
0.245908 -245.864 40.4245
3.66817 -153.355 14.1574
7.18649 -152.981 15.3998
10.7048 -152.606 16.6422
14.2231 -152.231 17.8846
17.7415 -151.857 19.127
21.2598 -151.482 20.3694
24.7781 -151.108 21.6118
26.4733 -202.037 37.4502
24.6002 -205.43 37.7413
22.7271 -208.824 38.0323
20.8539 -212.218 38.3234
18.9808 -215.612 38.6144
17.1077 -219.006 38.9055
15.2346 -222.399 39.1965
13.3615 -225.793 39.4876
11.4884 -229.187 39.7786
9.61529 -232.581 40.0697
7.74219 -235.975 40.3607
5.86908 -239.368 40.6518
3.99597 -242.762 40.9428
2.12286 -246.156 41.2339
-0.1998 197.644 39.208
-0.14985 150.733 21.906
-0.04995 56.911 -12.698
-0.0999 103.822 4.60398
0.04995 -36.911 -47.302
0 10 -30
0.0999 -83.8219 -64.604
0.14985 -130.733 -81.906
0.1998 -177.644 -99.208
-0.203643 201.252 40.5389
-0.207485 204.861 41.8698
-0.211327 208.469 43.2007
-0.215169 212.078 44.5316
-0.219012 215.687 45.8626
-0.222854 219.295 47.1935
-0.226696 222.904 48.5244
-0.230539 226.512 49.8553
-0.234381 230.121 51.1863
-0.238223 233.729 52.5172
-0.242066 237.338 53.8481
-0.245908 240.946 55.179
26.6265 203.568 32.8548
24.7067 206.496 34.5445
22.787 209.424 36.2341
20.8673 212.351 37.9238
18.9475 215.279 39.6134
17.0278 218.206 41.3031
15.1081 221.134 42.9927
13.1883 224.062 44.6824
11.2686 226.989 46.372
9.34889 229.917 48.0617
7.42916 232.844 49.7513
5.50944 235.772 51.441
3.58971 238.7 53.1306
1.66998 241.627 54.8203
1.76322 154.06 22.5232
3.67629 157.387 23.1405
5.58936 160.714 23.7578
7.50242 164.042 24.3751
9.41549 167.369 24.9924
11.3286 170.696 25.6096
13.2416 174.023 26.2269
15.1547 177.35 26.8442
17.0678 180.678 27.4615
18.9808 184.005 28.0788
20.8939 187.332 28.696
22.807 190.659 29.3133
24.72 193.986 29.9306
26.6331 197.314 30.5479
3.4434 151.108 20.9006
7.03665 151.482 19.8953
10.6299 151.857 18.8899
14.2231 152.231 17.8846
17.8164 152.606 16.8792
21.4096 152.981 15.8739
25.0029 153.355 14.8685
24.9529 200.266 32.1705
21.3597 199.892 33.1759
17.7664 199.517 34.1812
14.1732 199.142 35.1866
10.5799 198.768 36.1919
6.9867 198.393 37.1973
3.39345 198.018 38.2026
26.7264 109.747 -1.74917
24.8066 112.674 -0.059515
22.8869 115.602 1.63014
20.9672 118.529 3.31979
19.0474 121.457 5.00944
17.1277 124.385 6.6991
15.208 127.312 8.38875
13.2882 130.24 10.0784
11.3685 133.167 11.7681
9.44879 136.095 13.4577
7.52906 139.023 15.1474
5.60934 141.95 16.837
3.68961 144.878 18.5267
1.76988 147.805 20.2163
1.86312 60.2382 -12.0807
3.77619 63.5654 -11.4635
5.68926 66.8926 -10.8462
7.60233 70.2198 -10.2289
9.51539 73.547 -9.61161
11.4285 76.8742 -8.99433
13.3415 80.2014 -8.37705
15.2546 83.5285 -7.75978
17.1677 86.8557 -7.1425
19.0807 90.1829 -6.52522
20.9938 93.5101 -5.90794
22.9069 96.8373 -5.29066
24.8199 100.165 -4.67338
26.733 103.492 -4.0561
3.5433 57.2856 -13.7034
7.13654 57.6602 -14.7087
10.7298 58.0348 -15.7141
14.323 58.4095 -16.7194
17.9163 58.7841 -17.7248
21.5095 59.1587 -18.7301
25.1028 59.5333 -19.7355
-0.153692 154.341 23.2369
-0.157535 157.95 24.5678
-0.161377 161.559 25.8987
-0.165219 165.167 27.2297
-0.169062 168.776 28.5606
-0.172904 172.384 29.8915
-0.176746 175.993 31.2224
-0.180589 179.601 32.5533
-0.184431 183.21 33.8843
-0.188273 186.818 35.2152
-0.192116 190.427 36.5461
-0.195958 194.035 37.877
-0.103742 107.43 5.9349
-0.107585 111.039 7.26582
-0.111427 114.648 8.59675
-0.115269 118.256 9.92767
-0.119112 121.865 11.2586
-0.122954 125.473 12.5895
-0.126796 129.082 13.9204
-0.130639 132.69 15.2514
-0.134481 136.299 16.5823
-0.138323 139.907 17.9132
-0.142166 143.516 19.2441
-0.146008 147.124 20.575
25.0528 106.444 -2.43347
21.4596 106.07 -1.42812
17.8663 105.695 -0.42277
14.2731 105.32 0.58258
10.6798 104.946 1.58793
7.08659 104.571 2.59328
3.49335 104.197 3.59863
26.8263 15.9246 -36.3531
24.9065 18.8522 -34.6635
22.9868 21.7798 -32.9738
21.0671 24.7074 -31.2842
19.1473 27.635 -29.5945
17.2276 30.5626 -27.9049
15.3079 33.4902 -26.2152
13.3881 36.4178 -24.5256
11.4684 39.3454 -22.8359
9.54869 42.273 -21.1463
7.62896 45.2006 -19.4566
5.70924 48.1282 -17.767
3.78951 51.0558 -16.0773
1.86978 53.9834 -14.3877
26.8329 9.66981 -38.6601
24.9198 6.34261 -39.2774
23.0068 3.01541 -39.8946
21.0937 -0.311788 -40.5119
19.1806 -3.63899 -41.1292
17.2676 -6.96618 -41.7465
15.3545 -10.2934 -42.3638
13.4414 -13.6206 -42.981
11.5284 -16.9478 -43.5983
9.61529 -20.275 -44.2156
7.70223 -23.6022 -44.8329
5.78916 -26.9294 -45.4502
3.87609 -30.2566 -46.0674
1.96302 -33.5838 -46.6847
0.003842 6.39146 -31.3309
0.007685 2.78293 -32.6618
0.011527 -0.825607 -33.9928
0.015369 -4.43414 -35.3237
0.019212 -8.04268 -36.6546
0.023054 -11.6512 -37.9855
0.026896 -15.2598 -39.3165
0.030738 -18.8683 -40.6474
0.034581 -22.4768 -41.9783
0.038423 -26.0854 -43.3092
0.042265 -29.6939 -44.6401
0.046108 -33.3024 -45.9711
3.59325 10.3746 -31.0053
7.18649 10.7493 -32.0107
10.7797 11.1239 -33.016
14.373 11.4985 -34.0214
17.9662 11.8731 -35.0267
21.5595 12.2478 -36.0321
25.1527 12.6224 -37.0374
-0.053792 60.5195 -11.3671
-0.057635 64.128 -10.0362
-0.061477 67.7366 -8.70524
-0.065319 71.3451 -7.37432
-0.069162 74.9536 -6.0434
-0.073004 78.5622 -4.71248
-0.076846 82.1707 -3.38155
-0.080689 85.7793 -2.05063
-0.084531 89.3878 -0.719708
-0.088373 92.9963 0.611214
-0.092215 96.6049 1.94214
-0.096058 100.213 3.27306
-0.003842 13.6085 -28.6691
-0.007685 17.2171 -27.3382
-0.011527 20.8256 -26.0072
-0.015369 24.4341 -24.6763
-0.019212 28.0427 -23.3454
-0.023054 31.6512 -22.0145
-0.026896 35.2597 -20.6835
-0.030738 38.8683 -19.3526
-0.034581 42.4768 -18.0217
-0.038423 46.0854 -16.6908
-0.042265 49.6939 -15.3599
-0.046108 53.3024 -14.0289
0.053792 -40.5195 -48.6329
0.057635 -44.128 -49.9638
0.061477 -47.7366 -51.2948
0.065319 -51.3451 -52.6257
0.069162 -54.9536 -53.9566
0.073004 -58.5622 -55.2875
0.076846 -62.1707 -56.6184
0.080689 -65.7793 -57.9494
0.084531 -69.3878 -59.2803
0.088373 -72.9963 -60.6112
0.092215 -76.6049 -61.9421
0.096058 -80.2134 -63.2731
1.96968 -39.8386 -48.9916
3.88941 -42.7662 -50.6813
5.80914 -45.6938 -52.3709
7.72886 -48.6214 -54.0606
9.64859 -51.5489 -55.7503
11.5683 -54.4766 -57.4399
13.4881 -57.4042 -59.1296
15.4078 -60.3317 -60.8192
17.3275 -63.2593 -62.5089
19.2472 -66.1869 -64.1985
21.167 -69.1145 -65.8882
23.0867 -72.0421 -67.5778
25.0064 -74.9697 -69.2675
26.9262 -77.8973 -70.9571
25.2526 -81.1996 -71.6414
21.6594 -81.5742 -70.6361
18.0661 -81.9488 -69.6307
14.4729 -82.3234 -68.6254
10.8796 -82.6981 -67.62
7.28639 -83.0727 -66.6147
3.69315 -83.4473 -65.6093
0.103742 -87.4305 -65.9349
0.107585 -91.039 -67.2658
0.111427 -94.6475 -68.5967
0.115269 -98.2561 -69.9277
0.119112 -101.865 -71.2586
0.122954 -105.473 -72.5895
0.126796 -109.082 -73.9204
0.130639 -112.69 -75.2514
0.134481 -116.299 -76.5823
0.138323 -119.907 -77.9132
0.142166 -123.516 -79.2441
0.146008 -127.124 -80.575
3.6432 -36.5363 -48.3073
7.23644 -36.1617 -49.3127
10.8297 -35.7871 -50.318
14.4229 -35.4125 -51.3234
18.0162 -35.0378 -52.3287
21.6094 -34.6632 -53.3341
25.2027 -34.2886 -54.3394
26.9328 -84.1521 -73.2641
25.0197 -87.4793 -73.8813
23.1067 -90.8065 -74.4986
21.1936 -94.1337 -75.1159
19.2805 -97.4609 -75.7332
17.3675 -100.788 -76.3505
15.4544 -104.115 -76.9677
13.5413 -107.443 -77.585
11.6283 -110.77 -78.2023
9.71519 -114.097 -78.8196
7.80213 -117.424 -79.4369
5.88906 -120.751 -80.0541
3.97599 -124.078 -80.6714
2.06292 -127.406 -81.2887
0.153692 -134.341 -83.2369
0.157535 -137.95 -84.5678
0.161377 -141.559 -85.8987
0.165219 -145.167 -87.2297
0.169062 -148.776 -88.5606
0.172904 -152.384 -89.8915
0.176746 -155.993 -91.2224
0.180589 -159.601 -92.5533
0.184431 -163.21 -93.8843
0.188273 -166.818 -95.2152
0.192116 -170.427 -96.5461
0.195958 -174.035 -97.877
2.06958 -133.66 -83.5956
3.98931 -136.588 -85.2853
5.90904 -139.516 -86.9749
7.82876 -142.443 -88.6646
9.74849 -145.371 -90.3542
11.6682 -148.298 -92.0439
13.588 -151.226 -93.7335
15.5077 -154.154 -95.4232
17.4274 -157.081 -97.1128
19.3471 -160.009 -98.8025
21.2669 -162.936 -100.492
23.1866 -165.864 -102.182
25.1063 -168.792 -103.871
27.0261 -171.719 -105.561
25.3525 -175.021 -106.245
21.7593 -175.396 -105.24
18.166 -175.771 -104.235
14.5728 -176.145 -103.229
10.9795 -176.52 -102.224
7.38629 -176.895 -101.219
3.79305 -177.269 -100.213
0.203643 -181.252 -100.539
0.207485 -184.861 -101.87
0.211327 -188.469 -103.201
0.215169 -192.078 -104.532
0.219012 -195.687 -105.863
0.222854 -199.295 -107.193
0.226696 -202.904 -108.524
0.230539 -206.512 -109.855
0.234381 -210.121 -111.186
0.238223 -213.729 -112.517
0.242066 -217.338 -113.848
0.245908 -220.946 -115.179
3.7431 -130.358 -82.9113
7.33634 -129.984 -83.9167
10.9296 -129.609 -84.922
14.5228 -129.234 -85.9274
18.1161 -128.86 -86.9327
21.7093 -128.485 -87.9381
25.3026 -128.111 -88.9434
27.0327 -177.974 -107.868
25.1196 -181.301 -108.485
23.2066 -184.628 -109.103
21.2935 -187.956 -109.72
19.3804 -191.283 -110.337
17.4674 -194.61 -110.954
15.5543 -197.937 -111.572
13.6412 -201.264 -112.189
11.7282 -204.592 -112.806
9.81509 -207.919 -113.424
7.90203 -211.246 -114.041
5.98896 -214.573 -114.658
4.07589 -217.9 -115.275
2.16282 -221.228 -115.893
0 140 0
0 140 0
0 140 0
0 140 0
0 160 0
0 160 0
0 160 0
0 160 0
-14.8515 138.515 14.9256
-14.8515 138.515 14.9256
-14.8515 138.515 14.9256
-14.8515 138.515 14.9256
14.8515 158.515 14.9256
14.8515 158.515 14.9256
14.8515 158.515 14.9256
14.8515 158.515 14.9256
CELLS 2180 17900
4 0 22 235 45
4 22 23 236 235
4 23 24 237 236
4 24 1 25 237
4 45 235 238 44
4 235 236 239 238
4 236 237 240 239
4 237 25 26 240
4 44 238 241 43
4 238 239 242 241
4 239 240 243 242
4 240 26 27 243
4 43 241 244 42
4 241 242 245 244
4 242 243 246 245
4 243 27 28 246
4 42 244 247 41
4 244 245 248 247
4 245 246 249 248
4 246 28 29 249
4 41 247 250 40
4 247 248 251 250
4 248 249 252 251
4 249 29 30 252
4 40 250 253 39
4 250 251 254 253
4 251 252 255 254
4 252 30 31 255
4 39 253 256 38
4 253 254 257 256
4 254 255 258 257
4 255 31 32 258
4 38 256 259 37
4 256 257 260 259
4 257 258 261 260
4 258 32 33 261
4 37 259 36 3
4 259 260 35 36
4 260 261 34 35
4 261 33 2 34
4 3 36 262 66
4 36 35 263 262
4 35 34 264 263
4 34 2 46 264
4 66 262 265 65
4 262 263 266 265
4 263 264 267 266
4 264 46 47 267
4 65 265 268 64
4 265 266 269 268
4 266 267 270 269
4 267 47 48 270
4 64 268 271 63
4 268 269 272 271
4 269 270 273 272
4 270 48 49 273
4 63 271 274 62
4 271 272 275 274
4 272 273 276 275
4 273 49 50 276
4 62 274 277 61
4 274 275 278 277
4 275 276 279 278
4 276 50 51 279
4 61 277 280 60
4 277 278 281 280
4 278 279 282 281
4 279 51 52 282
4 60 280 283 59
4 280 281 284 283
4 281 282 285 284
4 282 52 53 285
4 59 283 286 58
4 283 284 287 286
4 284 285 288 287
4 285 53 54 288
4 58 286 57 5
4 286 287 56 57
4 287 288 55 56
4 288 54 4 55
4 5 57 289 87
4 57 56 290 289
4 56 55 291 290
4 55 4 67 291
4 87 289 292 86
4 289 290 293 292
4 290 291 294 293
4 291 67 68 294
4 86 292 295 85
4 292 293 296 295
4 293 294 297 296
4 294 68 69 297
4 85 295 298 84
4 295 296 299 298
4 296 297 300 299
4 297 69 70 300
4 84 298 301 83
4 298 299 302 301
4 299 300 303 302
4 300 70 71 303
4 83 301 304 82
4 301 302 305 304
4 302 303 306 305
4 303 71 72 306
4 82 304 307 81
4 304 305 308 307
4 305 306 309 308
4 306 72 73 309
4 81 307 310 80
4 307 308 311 310
4 308 309 312 311
4 309 73 74 312
4 80 310 313 79
4 310 311 314 313
4 311 312 315 314
4 312 74 75 315
4 79 313 78 7
4 313 314 77 78
4 314 315 76 77
4 315 75 6 76
4 7 78 316 108
4 78 77 317 316
4 77 76 318 317
4 76 6 88 318
4 108 316 319 107
4 316 317 320 319
4 317 318 321 320
4 318 88 89 321
4 107 319 322 106
4 319 320 323 322
4 320 321 324 323
4 321 89 90 324
4 106 322 325 105
4 322 323 326 325
4 323 324 327 326
4 324 90 91 327
4 105 325 328 104
4 325 326 329 328
4 326 327 330 329
4 327 91 92 330
4 104 328 331 103
4 328 329 332 331
4 329 330 333 332
4 330 92 93 333
4 103 331 334 102
4 331 332 335 334
4 332 333 336 335
4 333 93 94 336
4 102 334 337 101
4 334 335 338 337
4 335 336 339 338
4 336 94 95 339
4 101 337 340 100
4 337 338 341 340
4 338 339 342 341
4 339 95 96 342
4 100 340 99 9
4 340 341 98 99
4 341 342 97 98
4 342 96 8 97
4 9 99 343 129
4 99 98 344 343
4 98 97 345 344
4 97 8 109 345
4 129 343 346 128
4 343 344 347 346
4 344 345 348 347
4 345 109 110 348
4 128 346 349 127
4 346 347 350 349
4 347 348 351 350
4 348 110 111 351
4 127 349 352 126
4 349 350 353 352
4 350 351 354 353
4 351 111 112 354
4 126 352 355 125
4 352 353 356 355
4 353 354 357 356
4 354 112 113 357
4 125 355 358 124
4 355 356 359 358
4 356 357 360 359
4 357 113 114 360
4 124 358 361 123
4 358 359 362 361
4 359 360 363 362
4 360 114 115 363
4 123 361 364 122
4 361 362 365 364
4 362 363 366 365
4 363 115 116 366
4 122 364 367 121
4 364 365 368 367
4 365 366 369 368
4 366 116 117 369
4 121 367 120 11
4 367 368 119 120
4 368 369 118 119
4 369 117 10 118
4 11 120 370 150
4 120 119 371 370
4 119 118 372 371
4 118 10 130 372
4 150 370 373 149
4 370 371 374 373
4 371 372 375 374
4 372 130 131 375
4 149 373 376 148
4 373 374 377 376
4 374 375 378 377
4 375 131 132 378
4 148 376 379 147
4 376 377 380 379
4 377 378 381 380
4 378 132 133 381
4 147 379 382 146
4 379 380 383 382
4 380 381 384 383
4 381 133 134 384
4 146 382 385 145
4 382 383 386 385
4 383 384 387 386
4 384 134 135 387
4 145 385 388 144
4 385 386 389 388
4 386 387 390 389
4 387 135 136 390
4 144 388 391 143
4 388 389 392 391
4 389 390 393 392
4 390 136 137 393
4 143 391 394 142
4 391 392 395 394
4 392 393 396 395
4 393 137 138 396
4 142 394 141 13
4 394 395 140 141
4 395 396 139 140
4 396 138 12 139
4 13 141 397 171
4 141 140 398 397
4 140 139 399 398
4 139 12 151 399
4 171 397 400 170
4 397 398 401 400
4 398 399 402 401
4 399 151 152 402
4 170 400 403 169
4 400 401 404 403
4 401 402 405 404
4 402 152 153 405
4 169 403 406 168
4 403 404 407 406
4 404 405 408 407
4 405 153 154 408
4 168 406 409 167
4 406 407 410 409
4 407 408 411 410
4 408 154 155 411
4 167 409 412 166
4 409 410 413 412
4 410 411 414 413
4 411 155 156 414
4 166 412 415 165
4 412 413 416 415
4 413 414 417 416
4 414 156 157 417
4 165 415 418 164
4 415 416 419 418
4 416 417 420 419
4 417 157 158 420
4 164 418 421 163
4 418 419 422 421
4 419 420 423 422
4 420 158 159 423
4 163 421 162 15
4 421 422 161 162
4 422 423 160 161
4 423 159 14 160
4 15 162 424 192
4 162 161 425 424
4 161 160 426 425
4 160 14 172 426
4 192 424 427 191
4 424 425 428 427
4 425 426 429 428
4 426 172 173 429
4 191 427 430 190
4 427 428 431 430
4 428 429 432 431
4 429 173 174 432
4 190 430 433 189
4 430 431 434 433
4 431 432 435 434
4 432 174 175 435
4 189 433 436 188
4 433 434 437 436
4 434 435 438 437
4 435 175 176 438
4 188 436 439 187
4 436 437 440 439
4 437 438 441 440
4 438 176 177 441
4 187 439 442 186
4 439 440 443 442
4 440 441 444 443
4 441 177 178 444
4 186 442 445 185
4 442 443 446 445
4 443 444 447 446
4 444 178 179 447
4 185 445 448 184
4 445 446 449 448
4 446 447 450 449
4 447 179 180 450
4 184 448 183 17
4 448 449 182 183
4 449 450 181 182
4 450 180 16 181
4 17 183 451 213
4 183 182 452 451
4 182 181 453 452
4 181 16 193 453
4 213 451 454 212
4 451 452 455 454
4 452 453 456 455
4 453 193 194 456
4 212 454 457 211
4 454 455 458 457
4 455 456 459 458
4 456 194 195 459
4 211 457 460 210
4 457 458 461 460
4 458 459 462 461
4 459 195 196 462
4 210 460 463 209
4 460 461 464 463
4 461 462 465 464
4 462 196 197 465
4 209 463 466 208
4 463 464 467 466
4 464 465 468 467
4 465 197 198 468
4 208 466 469 207
4 466 467 470 469
4 467 468 471 470
4 468 198 199 471
4 207 469 472 206
4 469 470 473 472
4 470 471 474 473
4 471 199 200 474
4 206 472 475 205
4 472 473 476 475
4 473 474 477 476
4 474 200 201 477
4 205 475 204 19
4 475 476 203 204
4 476 477 202 203
4 477 201 18 202
4 1 24 478 234
4 24 23 479 478
4 23 22 480 479
4 22 0 214 480
4 234 478 481 233
4 478 479 482 481
4 479 480 483 482
4 480 214 215 483
4 233 481 484 232
4 481 482 485 484
4 482 483 486 485
4 483 215 216 486
4 232 484 487 231
4 484 485 488 487
4 485 486 489 488
4 486 216 217 489
4 231 487 490 230
4 487 488 491 490
4 488 489 492 491
4 489 217 218 492
4 230 490 493 229
4 490 491 494 493
4 491 492 495 494
4 492 218 219 495
4 229 493 496 228
4 493 494 497 496
4 494 495 498 497
4 495 219 220 498
4 228 496 499 227
4 496 497 500 499
4 497 498 501 500
4 498 220 221 501
4 227 499 502 226
4 499 500 503 502
4 500 501 504 503
4 501 221 222 504
4 226 502 225 21
4 502 503 224 225
4 503 504 223 224
4 504 222 20 223
8 606 933 1210 777 505 517 773 522
8 933 646 855 1210 517 506 518 773
8 777 1210 1211 778 522 773 774 521
8 1210 855 856 1211 773 518 519 774
8 778 1211 972 529 521 774 520 508
8 1211 856 645 972 774 519 507 520
8 605 934 1212 779 606 933 1210 777
8 934 647 857 1212 933 646 855 1210
8 779 1212 1213 780 777 1210 1211 778
8 1212 857 858 1213 1210 855 856 1211
8 780 1213 973 530 778 1211 972 529
8 1213 858 644 973 1211 856 645 972
8 604 935 1214 781 605 934 1212 779
8 935 648 859 1214 934 647 857 1212
8 781 1214 1215 782 779 1212 1213 780
8 1214 859 860 1215 1212 857 858 1213
8 782 1215 974 531 780 1213 973 530
8 1215 860 643 974 1213 858 644 973
8 603 936 1216 783 604 935 1214 781
8 936 649 861 1216 935 648 859 1214
8 783 1216 1217 784 781 1214 1215 782
8 1216 861 862 1217 1214 859 860 1215
8 784 1217 975 532 782 1215 974 531
8 1217 862 642 975 1215 860 643 974
8 602 937 1218 785 603 936 1216 783
8 937 650 863 1218 936 649 861 1216
8 785 1218 1219 786 783 1216 1217 784
8 1218 863 864 1219 1216 861 862 1217
8 786 1219 976 533 784 1217 975 532
8 1219 864 641 976 1217 862 642 975
8 601 938 1220 787 602 937 1218 785
8 938 651 865 1220 937 650 863 1218
8 787 1220 1221 788 785 1218 1219 786
8 1220 865 866 1221 1218 863 864 1219
8 788 1221 977 534 786 1219 976 533
8 1221 866 640 977 1219 864 641 976
8 600 939 1222 789 601 938 1220 787
8 939 652 867 1222 938 651 865 1220
8 789 1222 1223 790 787 1220 1221 788
8 1222 867 868 1223 1220 865 866 1221
8 790 1223 978 535 788 1221 977 534
8 1223 868 639 978 1221 866 640 977
8 599 940 1224 791 600 939 1222 789
8 940 653 869 1224 939 652 867 1222
8 791 1224 1225 792 789 1222 1223 790
8 1224 869 870 1225 1222 867 868 1223
8 792 1225 979 536 790 1223 978 535
8 1225 870 638 979 1223 868 639 978
8 598 941 1226 793 599 940 1224 791
8 941 654 871 1226 940 653 869 1224
8 793 1226 1227 794 791 1224 1225 792
8 1226 871 872 1227 1224 869 870 1225
8 794 1227 980 537 792 1225 979 536
8 1227 872 637 980 1225 870 638 979
8 597 942 1228 795 598 941 1226 793
8 942 655 873 1228 941 654 871 1226
8 795 1228 1229 796 793 1226 1227 794
8 1228 873 874 1229 1226 871 872 1227
8 796 1229 981 538 794 1227 980 537
8 1229 874 636 981 1227 872 637 980
8 596 943 1230 797 597 942 1228 795
8 943 656 875 1230 942 655 873 1228
8 797 1230 1231 798 795 1228 1229 796
8 1230 875 876 1231 1228 873 874 1229
8 798 1231 982 539 796 1229 981 538
8 1231 876 635 982 1229 874 636 981
8 595 944 1232 799 596 943 1230 797
8 944 657 877 1232 943 656 875 1230
8 799 1232 1233 800 797 1230 1231 798
8 1232 877 878 1233 1230 875 876 1231
8 800 1233 983 540 798 1231 982 539
8 1233 878 634 983 1231 876 635 982
8 594 945 1234 801 595 944 1232 799
8 945 658 879 1234 944 657 877 1232
8 801 1234 1235 802 799 1232 1233 800
8 1234 879 880 1235 1232 877 878 1233
8 802 1235 984 541 800 1233 983 540
8 1235 880 633 984 1233 878 634 983
8 593 946 1236 803 594 945 1234 801
8 946 659 881 1236 945 658 879 1234
8 803 1236 1237 804 801 1234 1235 802
8 1236 881 882 1237 1234 879 880 1235
8 804 1237 985 542 802 1235 984 541
8 1237 882 632 985 1235 880 633 984
8 592 947 1238 805 593 946 1236 803
8 947 660 883 1238 946 659 881 1236
8 805 1238 1239 806 803 1236 1237 804
8 1238 883 884 1239 1236 881 882 1237
8 806 1239 986 543 804 1237 985 542
8 1239 884 631 986 1237 882 632 985
8 591 948 1240 807 592 947 1238 805
8 948 661 885 1240 947 660 883 1238
8 807 1240 1241 808 805 1238 1239 806
8 1240 885 886 1241 1238 883 884 1239
8 808 1241 987 544 806 1239 986 543
8 1241 886 630 987 1239 884 631 986
8 590 949 1242 809 591 948 1240 807
8 949 662 887 1242 948 661 885 1240
8 809 1242 1243 810 807 1240 1241 808
8 1242 887 888 1243 1240 885 886 1241
8 810 1243 988 545 808 1241 987 544
8 1243 888 629 988 1241 886 630 987
8 589 950 1244 811 590 949 1242 809
8 950 663 889 1244 949 662 887 1242
8 811 1244 1245 812 809 1242 1243 810
8 1244 889 890 1245 1242 887 888 1243
8 812 1245 989 546 810 1243 988 545
8 1245 890 628 989 1243 888 629 988
8 588 951 1246 813 589 950 1244 811
8 951 664 891 1246 950 663 889 1244
8 813 1246 1247 814 811 1244 1245 812
8 1246 891 892 1247 1244 889 890 1245
8 814 1247 990 547 812 1245 989 546
8 1247 892 627 990 1245 890 628 989
8 587 952 1248 815 588 951 1246 813
8 952 665 893 1248 951 664 891 1246
8 815 1248 1249 816 813 1246 1247 814
8 1248 893 894 1249 1246 891 892 1247
8 816 1249 991 548 814 1247 990 547
8 1249 894 626 991 1247 892 627 990
8 586 953 1250 817 587 952 1248 815
8 953 666 895 1250 952 665 893 1248
8 817 1250 1251 818 815 1248 1249 816
8 1250 895 896 1251 1248 893 894 1249
8 818 1251 992 549 816 1249 991 548
8 1251 896 625 992 1249 894 626 991
8 585 954 1252 819 586 953 1250 817
8 954 667 897 1252 953 666 895 1250
8 819 1252 1253 820 817 1250 1251 818
8 1252 897 898 1253 1250 895 896 1251
8 820 1253 993 550 818 1251 992 549
8 1253 898 624 993 1251 896 625 992
8 584 955 1254 821 585 954 1252 819
8 955 668 899 1254 954 667 897 1252
8 821 1254 1255 822 819 1252 1253 820
8 1254 899 900 1255 1252 897 898 1253
8 822 1255 994 551 820 1253 993 550
8 1255 900 623 994 1253 898 624 993
8 583 956 1256 823 584 955 1254 821
8 956 669 901 1256 955 668 899 1254
8 823 1256 1257 824 821 1254 1255 822
8 1256 901 902 1257 1254 899 900 1255
8 824 1257 995 552 822 1255 994 551
8 1257 902 622 995 1255 900 623 994
8 582 957 1258 825 583 956 1256 823
8 957 670 903 1258 956 669 901 1256
8 825 1258 1259 826 823 1256 1257 824
8 1258 903 904 1259 1256 901 902 1257
8 826 1259 996 553 824 1257 995 552
8 1259 904 621 996 1257 902 622 995
8 581 958 1260 827 582 957 1258 825
8 958 671 905 1260 957 670 903 1258
8 827 1260 1261 828 825 1258 1259 826
8 1260 905 906 1261 1258 903 904 1259
8 828 1261 997 554 826 1259 996 553
8 1261 906 620 997 1259 904 621 996
8 580 959 1262 829 581 958 1260 827
8 959 672 907 1262 958 671 905 1260
8 829 1262 1263 830 827 1260 1261 828
8 1262 907 908 1263 1260 905 906 1261
8 830 1263 998 555 828 1261 997 554
8 1263 908 619 998 1261 906 620 997
8 579 960 1264 831 580 959 1262 829
8 960 673 909 1264 959 672 907 1262
8 831 1264 1265 832 829 1262 1263 830
8 1264 909 910 1265 1262 907 908 1263
8 832 1265 999 556 830 1263 998 555
8 1265 910 618 999 1263 908 619 998
8 578 961 1266 833 579 960 1264 831
8 961 674 911 1266 960 673 909 1264
8 833 1266 1267 834 831 1264 1265 832
8 1266 911 912 1267 1264 909 910 1265
8 834 1267 1000 557 832 1265 999 556
8 1267 912 617 1000 1265 910 618 999
8 577 962 1268 835 578 961 1266 833
8 962 675 913 1268 961 674 911 1266
8 835 1268 1269 836 833 1266 1267 834
8 1268 913 914 1269 1266 911 912 1267
8 836 1269 1001 558 834 1267 1000 557
8 1269 914 616 1001 1267 912 617 1000
8 576 963 1270 837 577 962 1268 835
8 963 676 915 1270 962 675 913 1268
8 837 1270 1271 838 835 1268 1269 836
8 1270 915 916 1271 1268 913 914 1269
8 838 1271 1002 559 836 1269 1001 558
8 1271 916 615 1002 1269 914 616 1001
8 575 964 1272 839 576 963 1270 837
8 964 677 917 1272 963 676 915 1270
8 839 1272 1273 840 837 1270 1271 838
8 1272 917 918 1273 1270 915 916 1271
8 840 1273 1003 560 838 1271 1002 559
8 1273 918 614 1003 1271 916 615 1002
8 574 965 1274 841 575 964 1272 839
8 965 678 919 1274 964 677 917 1272
8 841 1274 1275 842 839 1272 1273 840
8 1274 919 920 1275 1272 917 918 1273
8 842 1275 1004 561 840 1273 1003 560
8 1275 920 613 1004 1273 918 614 1003
8 573 966 1276 843 574 965 1274 841
8 966 679 921 1276 965 678 919 1274
8 843 1276 1277 844 841 1274 1275 842
8 1276 921 922 1277 1274 919 920 1275
8 844 1277 1005 562 842 1275 1004 561
8 1277 922 612 1005 1275 920 613 1004
8 572 967 1278 845 573 966 1276 843
8 967 680 923 1278 966 679 921 1276
8 845 1278 1279 846 843 1276 1277 844
8 1278 923 924 1279 1276 921 922 1277
8 846 1279 1006 563 844 1277 1005 562
8 1279 924 611 1006 1277 922 612 1005
8 571 968 1280 847 572 967 1278 845
8 968 681 925 1280 967 680 923 1278
8 847 1280 1281 848 845 1278 1279 846
8 1280 925 926 1281 1278 923 924 1279
8 848 1281 1007 564 846 1279 1006 563
8 1281 926 610 1007 1279 924 611 1006
8 570 969 1282 849 571 968 1280 847
8 969 682 927 1282 968 681 925 1280
8 849 1282 1283 850 847 1280 1281 848
8 1282 927 928 1283 1280 925 926 1281
8 850 1283 1008 565 848 1281 1007 564
8 1283 928 609 1008 1281 926 610 1007
8 569 970 1284 851 570 969 1282 849
8 970 683 929 1284 969 682 927 1282
8 851 1284 1285 852 849 1282 1283 850
8 1284 929 930 1285 1282 927 928 1283
8 852 1285 1009 566 850 1283 1008 565
8 1285 930 608 1009 1283 928 609 1008
8 568 971 1286 853 569 970 1284 851
8 971 684 931 1286 970 683 929 1284
8 853 1286 1287 854 851 1284 1285 852
8 1286 931 932 1287 1284 929 930 1285
8 854 1287 1010 567 852 1285 1009 566
8 1287 932 607 1010 1285 930 608 1009
8 512 523 775 527 568 971 1286 853
8 523 509 525 775 971 684 931 1286
8 527 775 776 528 853 1286 1287 854
8 775 525 524 776 1286 931 932 1287
8 528 776 526 511 854 1287 1010 567
8 776 524 510 526 1287 932 607 1010
8 646 933 1288 1015 506 517 1011 689
8 933 606 1093 1288 517 505 685 1011
8 1015 1288 1289 1016 689 1011 1012 688
8 1288 1093 1094 1289 1011 685 686 1012
8 1016 1289 1171 695 688 1012 687 514
8 1289 1094 772 1171 1012 686 513 687
8 647 934 1290 1017 646 933 1288 1015
8 934 605 1095 1290 933 606 1093 1288
8 1017 1290 1291 1018 1015 1288 1289 1016
8 1290 1095 1096 1291 1288 1093 1094 1289
8 1018 1291 1172 696 1016 1289 1171 695
8 1291 1096 771 1172 1289 1094 772 1171
8 648 935 1292 1019 647 934 1290 1017
8 935 604 1097 1292 934 605 1095 1290
8 1019 1292 1293 1020 1017 1290 1291 1018
8 1292 1097 1098 1293 1290 1095 1096 1291
8 1020 1293 1173 697 1018 1291 1172 696
8 1293 1098 770 1173 1291 1096 771 1172
8 649 936 1294 1021 648 935 1292 1019
8 936 603 1099 1294 935 604 1097 1292
8 1021 1294 1295 1022 1019 1292 1293 1020
8 1294 1099 1100 1295 1292 1097 1098 1293
8 1022 1295 1174 698 1020 1293 1173 697
8 1295 1100 769 1174 1293 1098 770 1173
8 650 937 1296 1023 649 936 1294 1021
8 937 602 1101 1296 936 603 1099 1294
8 1023 1296 1297 1024 1021 1294 1295 1022
8 1296 1101 1102 1297 1294 1099 1100 1295
8 1024 1297 1175 699 1022 1295 1174 698
8 1297 1102 768 1175 1295 1100 769 1174
8 651 938 1298 1025 650 937 1296 1023
8 938 601 1103 1298 937 602 1101 1296
8 1025 1298 1299 1026 1023 1296 1297 1024
8 1298 1103 1104 1299 1296 1101 1102 1297
8 1026 1299 1176 700 1024 1297 1175 699
8 1299 1104 767 1176 1297 1102 768 1175
8 652 939 1300 1027 651 938 1298 1025
8 939 600 1105 1300 938 601 1103 1298
8 1027 1300 1301 1028 1025 1298 1299 1026
8 1300 1105 1106 1301 1298 1103 1104 1299
8 1028 1301 1177 701 1026 1299 1176 700
8 1301 1106 766 1177 1299 1104 767 1176
8 653 940 1302 1029 652 939 1300 1027
8 940 599 1107 1302 939 600 1105 1300
8 1029 1302 1303 1030 1027 1300 1301 1028
8 1302 1107 1108 1303 1300 1105 1106 1301
8 1030 1303 1178 702 1028 1301 1177 701
8 1303 1108 765 1178 1301 1106 766 1177
8 654 941 1304 1031 653 940 1302 1029
8 941 598 1109 1304 940 599 1107 1302
8 1031 1304 1305 1032 1029 1302 1303 1030
8 1304 1109 1110 1305 1302 1107 1108 1303
8 1032 1305 1179 703 1030 1303 1178 702
8 1305 1110 764 1179 1303 1108 765 1178
8 655 942 1306 1033 654 941 1304 1031
8 942 597 1111 1306 941 598 1109 1304
8 1033 1306 1307 1034 1031 1304 1305 1032
8 1306 1111 1112 1307 1304 1109 1110 1305
8 1034 1307 1180 704 1032 1305 1179 703
8 1307 1112 763 1180 1305 1110 764 1179
8 656 943 1308 1035 655 942 1306 1033
8 943 596 1113 1308 942 597 1111 1306
8 1035 1308 1309 1036 1033 1306 1307 1034
8 1308 1113 1114 1309 1306 1111 1112 1307
8 1036 1309 1181 705 1034 1307 1180 704
8 1309 1114 762 1181 1307 1112 763 1180
8 657 944 1310 1037 656 943 1308 1035
8 944 595 1115 1310 943 596 1113 1308
8 1037 1310 1311 1038 1035 1308 1309 1036
8 1310 1115 1116 1311 1308 1113 1114 1309
8 1038 1311 1182 706 1036 1309 1181 705
8 1311 1116 761 1182 1309 1114 762 1181
8 658 945 1312 1039 657 944 1310 1037
8 945 594 1117 1312 944 595 1115 1310
8 1039 1312 1313 1040 1037 1310 1311 1038
8 1312 1117 1118 1313 1310 1115 1116 1311
8 1040 1313 1183 707 1038 1311 1182 706
8 1313 1118 760 1183 1311 1116 761 1182
8 659 946 1314 1041 658 945 1312 1039
8 946 593 1119 1314 945 594 1117 1312
8 1041 1314 1315 1042 1039 1312 1313 1040
8 1314 1119 1120 1315 1312 1117 1118 1313
8 1042 1315 1184 708 1040 1313 1183 707
8 1315 1120 759 1184 1313 1118 760 1183
8 660 947 1316 1043 659 946 1314 1041
8 947 592 1121 1316 946 593 1119 1314
8 1043 1316 1317 1044 1041 1314 1315 1042
8 1316 1121 1122 1317 1314 1119 1120 1315
8 1044 1317 1185 709 1042 1315 1184 708
8 1317 1122 758 1185 1315 1120 759 1184
8 661 948 1318 1045 660 947 1316 1043
8 948 591 1123 1318 947 592 1121 1316
8 1045 1318 1319 1046 1043 1316 1317 1044
8 1318 1123 1124 1319 1316 1121 1122 1317
8 1046 1319 1186 710 1044 1317 1185 709
8 1319 1124 757 1186 1317 1122 758 1185
8 662 949 1320 1047 661 948 1318 1045
8 949 590 1125 1320 948 591 1123 1318
8 1047 1320 1321 1048 1045 1318 1319 1046
8 1320 1125 1126 1321 1318 1123 1124 1319
8 1048 1321 1187 711 1046 1319 1186 710
8 1321 1126 756 1187 1319 1124 757 1186
8 663 950 1322 1049 662 949 1320 1047
8 950 589 1127 1322 949 590 1125 1320
8 1049 1322 1323 1050 1047 1320 1321 1048
8 1322 1127 1128 1323 1320 1125 1126 1321
8 1050 1323 1188 712 1048 1321 1187 711
8 1323 1128 755 1188 1321 1126 756 1187
8 664 951 1324 1051 663 950 1322 1049
8 951 588 1129 1324 950 589 1127 1322
8 1051 1324 1325 1052 1049 1322 1323 1050
8 1324 1129 1130 1325 1322 1127 1128 1323
8 1052 1325 1189 713 1050 1323 1188 712
8 1325 1130 754 1189 1323 1128 755 1188
8 665 952 1326 1053 664 951 1324 1051
8 952 587 1131 1326 951 588 1129 1324
8 1053 1326 1327 1054 1051 1324 1325 1052
8 1326 1131 1132 1327 1324 1129 1130 1325
8 1054 1327 1190 714 1052 1325 1189 713
8 1327 1132 753 1190 1325 1130 754 1189
8 666 953 1328 1055 665 952 1326 1053
8 953 586 1133 1328 952 587 1131 1326
8 1055 1328 1329 1056 1053 1326 1327 1054
8 1328 1133 1134 1329 1326 1131 1132 1327
8 1056 1329 1191 715 1054 1327 1190 714
8 1329 1134 752 1191 1327 1132 753 1190
8 667 954 1330 1057 666 953 1328 1055
8 954 585 1135 1330 953 586 1133 1328
8 1057 1330 1331 1058 1055 1328 1329 1056
8 1330 1135 1136 1331 1328 1133 1134 1329
8 1058 1331 1192 716 1056 1329 1191 715
8 1331 1136 751 1192 1329 1134 752 1191
8 668 955 1332 1059 667 954 1330 1057
8 955 584 1137 1332 954 585 1135 1330
8 1059 1332 1333 1060 1057 1330 1331 1058
8 1332 1137 1138 1333 1330 1135 1136 1331
8 1060 1333 1193 717 1058 1331 1192 716
8 1333 1138 750 1193 1331 1136 751 1192
8 669 956 1334 1061 668 955 1332 1059
8 956 583 1139 1334 955 584 1137 1332
8 1061 1334 1335 1062 1059 1332 1333 1060
8 1334 1139 1140 1335 1332 1137 1138 1333
8 1062 1335 1194 718 1060 1333 1193 717
8 1335 1140 749 1194 1333 1138 750 1193
8 670 957 1336 1063 669 956 1334 1061
8 957 582 1141 1336 956 583 1139 1334
8 1063 1336 1337 1064 1061 1334 1335 1062
8 1336 1141 1142 1337 1334 1139 1140 1335
8 1064 1337 1195 719 1062 1335 1194 718
8 1337 1142 748 1195 1335 1140 749 1194
8 671 958 1338 1065 670 957 1336 1063
8 958 581 1143 1338 957 582 1141 1336
8 1065 1338 1339 1066 1063 1336 1337 1064
8 1338 1143 1144 1339 1336 1141 1142 1337
8 1066 1339 1196 720 1064 1337 1195 719
8 1339 1144 747 1196 1337 1142 748 1195
8 672 959 1340 1067 671 958 1338 1065
8 959 580 1145 1340 958 581 1143 1338
8 1067 1340 1341 1068 1065 1338 1339 1066
8 1340 1145 1146 1341 1338 1143 1144 1339
8 1068 1341 1197 721 1066 1339 1196 720
8 1341 1146 746 1197 1339 1144 747 1196
8 673 960 1342 1069 672 959 1340 1067
8 960 579 1147 1342 959 580 1145 1340
8 1069 1342 1343 1070 1067 1340 1341 1068
8 1342 1147 1148 1343 1340 1145 1146 1341
8 1070 1343 1198 722 1068 1341 1197 721
8 1343 1148 745 1198 1341 1146 746 1197
8 674 961 1344 1071 673 960 1342 1069
8 961 578 1149 1344 960 579 1147 1342
8 1071 1344 1345 1072 1069 1342 1343 1070
8 1344 1149 1150 1345 1342 1147 1148 1343
8 1072 1345 1199 723 1070 1343 1198 722
8 1345 1150 744 1199 1343 1148 745 1198
8 675 962 1346 1073 674 961 1344 1071
8 962 577 1151 1346 961 578 1149 1344
8 1073 1346 1347 1074 1071 1344 1345 1072
8 1346 1151 1152 1347 1344 1149 1150 1345
8 1074 1347 1200 724 1072 1345 1199 723
8 1347 1152 743 1200 1345 1150 744 1199
8 676 963 1348 1075 675 962 1346 1073
8 963 576 1153 1348 962 577 1151 1346
8 1075 1348 1349 1076 1073 1346 1347 1074
8 1348 1153 1154 1349 1346 1151 1152 1347
8 1076 1349 1201 725 1074 1347 1200 724
8 1349 1154 742 1201 1347 1152 743 1200
8 677 964 1350 1077 676 963 1348 1075
8 964 575 1155 1350 963 576 1153 1348
8 1077 1350 1351 1078 1075 1348 1349 1076
8 1350 1155 1156 1351 1348 1153 1154 1349
8 1078 1351 1202 726 1076 1349 1201 725
8 1351 1156 741 1202 1349 1154 742 1201
8 678 965 1352 1079 677 964 1350 1077
8 965 574 1157 1352 964 575 1155 1350
8 1079 1352 1353 1080 1077 1350 1351 1078
8 1352 1157 1158 1353 1350 1155 1156 1351
8 1080 1353 1203 727 1078 1351 1202 726
8 1353 1158 740 1203 1351 1156 741 1202
8 679 966 1354 1081 678 965 1352 1079
8 966 573 1159 1354 965 574 1157 1352
8 1081 1354 1355 1082 1079 1352 1353 1080
8 1354 1159 1160 1355 1352 1157 1158 1353
8 1082 1355 1204 728 1080 1353 1203 727
8 1355 1160 739 1204 1353 1158 740 1203
8 680 967 1356 1083 679 966 1354 1081
8 967 572 1161 1356 966 573 1159 1354
8 1083 1356 1357 1084 1081 1354 1355 1082
8 1356 1161 1162 1357 1354 1159 1160 1355
8 1084 1357 1205 729 1082 1355 1204 728
8 1357 1162 738 1205 1355 1160 739 1204
8 681 968 1358 1085 680 967 1356 1083
8 968 571 1163 1358 967 572 1161 1356
8 1085 1358 1359 1086 1083 1356 1357 1084
8 1358 1163 1164 1359 1356 1161 1162 1357
8 1086 1359 1206 730 1084 1357 1205 729
8 1359 1164 737 1206 1357 1162 738 1205
8 682 969 1360 1087 681 968 1358 1085
8 969 570 1165 1360 968 571 1163 1358
8 1087 1360 1361 1088 1085 1358 1359 1086
8 1360 1165 1166 1361 1358 1163 1164 1359
8 1088 1361 1207 731 1086 1359 1206 730
8 1361 1166 736 1207 1359 1164 737 1206
8 683 970 1362 1089 682 969 1360 1087
8 970 569 1167 1362 969 570 1165 1360
8 1089 1362 1363 1090 1087 1360 1361 1088
8 1362 1167 1168 1363 1360 1165 1166 1361
8 1090 1363 1208 732 1088 1361 1207 731
8 1363 1168 735 1208 1361 1166 736 1207
8 684 971 1364 1091 683 970 1362 1089
8 971 568 1169 1364 970 569 1167 1362
8 1091 1364 1365 1092 1089 1362 1363 1090
8 1364 1169 1170 1365 1362 1167 1168 1363
8 1092 1365 1209 733 1090 1363 1208 732
8 1365 1170 734 1209 1363 1168 735 1208
8 509 523 1013 693 684 971 1364 1091
8 523 512 691 1013 971 568 1169 1364
8 693 1013 1014 694 1091 1364 1365 1092
8 1013 691 690 1014 1364 1169 1170 1365
8 694 1014 692 516 1092 1365 1209 733
8 1014 690 515 692 1365 1170 734 1209
8 1467 1794 2071 1638 1366 1378 1634 1383
8 1794 1507 1716 2071 1378 1367 1379 1634
8 1638 2071 2072 1639 1383 1634 1635 1382
8 2071 1716 1717 2072 1634 1379 1380 1635
8 1639 2072 1833 1390 1382 1635 1381 1369
8 2072 1717 1506 1833 1635 1380 1368 1381
8 1466 1795 2073 1640 1467 1794 2071 1638
8 1795 1508 1718 2073 1794 1507 1716 2071
8 1640 2073 2074 1641 1638 2071 2072 1639
8 2073 1718 1719 2074 2071 1716 1717 2072
8 1641 2074 1834 1391 1639 2072 1833 1390
8 2074 1719 1505 1834 2072 1717 1506 1833
8 1465 1796 2075 1642 1466 1795 2073 1640
8 1796 1509 1720 2075 1795 1508 1718 2073
8 1642 2075 2076 1643 1640 2073 2074 1641
8 2075 1720 1721 2076 2073 1718 1719 2074
8 1643 2076 1835 1392 1641 2074 1834 1391
8 2076 1721 1504 1835 2074 1719 1505 1834
8 1464 1797 2077 1644 1465 1796 2075 1642
8 1797 1510 1722 2077 1796 1509 1720 2075
8 1644 2077 2078 1645 1642 2075 2076 1643
8 2077 1722 1723 2078 2075 1720 1721 2076
8 1645 2078 1836 1393 1643 2076 1835 1392
8 2078 1723 1503 1836 2076 1721 1504 1835
8 1463 1798 2079 1646 1464 1797 2077 1644
8 1798 1511 1724 2079 1797 1510 1722 2077
8 1646 2079 2080 1647 1644 2077 2078 1645
8 2079 1724 1725 2080 2077 1722 1723 2078
8 1647 2080 1837 1394 1645 2078 1836 1393
8 2080 1725 1502 1837 2078 1723 1503 1836
8 1462 1799 2081 1648 1463 1798 2079 1646
8 1799 1512 1726 2081 1798 1511 1724 2079
8 1648 2081 2082 1649 1646 2079 2080 1647
8 2081 1726 1727 2082 2079 1724 1725 2080
8 1649 2082 1838 1395 1647 2080 1837 1394
8 2082 1727 1501 1838 2080 1725 1502 1837
8 1461 1800 2083 1650 1462 1799 2081 1648
8 1800 1513 1728 2083 1799 1512 1726 2081
8 1650 2083 2084 1651 1648 2081 2082 1649
8 2083 1728 1729 2084 2081 1726 1727 2082
8 1651 2084 1839 1396 1649 2082 1838 1395
8 2084 1729 1500 1839 2082 1727 1501 1838
8 1460 1801 2085 1652 1461 1800 2083 1650
8 1801 1514 1730 2085 1800 1513 1728 2083
8 1652 2085 2086 1653 1650 2083 2084 1651
8 2085 1730 1731 2086 2083 1728 1729 2084
8 1653 2086 1840 1397 1651 2084 1839 1396
8 2086 1731 1499 1840 2084 1729 1500 1839
8 1459 1802 2087 1654 1460 1801 2085 1652
8 1802 1515 1732 2087 1801 1514 1730 2085
8 1654 2087 2088 1655 1652 2085 2086 1653
8 2087 1732 1733 2088 2085 1730 1731 2086
8 1655 2088 1841 1398 1653 2086 1840 1397
8 2088 1733 1498 1841 2086 1731 1499 1840
8 1458 1803 2089 1656 1459 1802 2087 1654
8 1803 1516 1734 2089 1802 1515 1732 2087
8 1656 2089 2090 1657 1654 2087 2088 1655
8 2089 1734 1735 2090 2087 1732 1733 2088
8 1657 2090 1842 1399 1655 2088 1841 1398
8 2090 1735 1497 1842 2088 1733 1498 1841
8 1457 1804 2091 1658 1458 1803 2089 1656
8 1804 1517 1736 2091 1803 1516 1734 2089
8 1658 2091 2092 1659 1656 2089 2090 1657
8 2091 1736 1737 2092 2089 1734 1735 2090
8 1659 2092 1843 1400 1657 2090 1842 1399
8 2092 1737 1496 1843 2090 1735 1497 1842
8 1456 1805 2093 1660 1457 1804 2091 1658
8 1805 1518 1738 2093 1804 1517 1736 2091
8 1660 2093 2094 1661 1658 2091 2092 1659
8 2093 1738 1739 2094 2091 1736 1737 2092
8 1661 2094 1844 1401 1659 2092 1843 1400
8 2094 1739 1495 1844 2092 1737 1496 1843
8 1455 1806 2095 1662 1456 1805 2093 1660
8 1806 1519 1740 2095 1805 1518 1738 2093
8 1662 2095 2096 1663 1660 2093 2094 1661
8 2095 1740 1741 2096 2093 1738 1739 2094
8 1663 2096 1845 1402 1661 2094 1844 1401
8 2096 1741 1494 1845 2094 1739 1495 1844
8 1454 1807 2097 1664 1455 1806 2095 1662
8 1807 1520 1742 2097 1806 1519 1740 2095
8 1664 2097 2098 1665 1662 2095 2096 1663
8 2097 1742 1743 2098 2095 1740 1741 2096
8 1665 2098 1846 1403 1663 2096 1845 1402
8 2098 1743 1493 1846 2096 1741 1494 1845
8 1453 1808 2099 1666 1454 1807 2097 1664
8 1808 1521 1744 2099 1807 1520 1742 2097
8 1666 2099 2100 1667 1664 2097 2098 1665
8 2099 1744 1745 2100 2097 1742 1743 2098
8 1667 2100 1847 1404 1665 2098 1846 1403
8 2100 1745 1492 1847 2098 1743 1493 1846
8 1452 1809 2101 1668 1453 1808 2099 1666
8 1809 1522 1746 2101 1808 1521 1744 2099
8 1668 2101 2102 1669 1666 2099 2100 1667
8 2101 1746 1747 2102 2099 1744 1745 2100
8 1669 2102 1848 1405 1667 2100 1847 1404
8 2102 1747 1491 1848 2100 1745 1492 1847
8 1451 1810 2103 1670 1452 1809 2101 1668
8 1810 1523 1748 2103 1809 1522 1746 2101
8 1670 2103 2104 1671 1668 2101 2102 1669
8 2103 1748 1749 2104 2101 1746 1747 2102
8 1671 2104 1849 1406 1669 2102 1848 1405
8 2104 1749 1490 1849 2102 1747 1491 1848
8 1450 1811 2105 1672 1451 1810 2103 1670
8 1811 1524 1750 2105 1810 1523 1748 2103
8 1672 2105 2106 1673 1670 2103 2104 1671
8 2105 1750 1751 2106 2103 1748 1749 2104
8 1673 2106 1850 1407 1671 2104 1849 1406
8 2106 1751 1489 1850 2104 1749 1490 1849
8 1449 1812 2107 1674 1450 1811 2105 1672
8 1812 1525 1752 2107 1811 1524 1750 2105
8 1674 2107 2108 1675 1672 2105 2106 1673
8 2107 1752 1753 2108 2105 1750 1751 2106
8 1675 2108 1851 1408 1673 2106 1850 1407
8 2108 1753 1488 1851 2106 1751 1489 1850
8 1448 1813 2109 1676 1449 1812 2107 1674
8 1813 1526 1754 2109 1812 1525 1752 2107
8 1676 2109 2110 1677 1674 2107 2108 1675
8 2109 1754 1755 2110 2107 1752 1753 2108
8 1677 2110 1852 1409 1675 2108 1851 1408
8 2110 1755 1487 1852 2108 1753 1488 1851
8 1447 1814 2111 1678 1448 1813 2109 1676
8 1814 1527 1756 2111 1813 1526 1754 2109
8 1678 2111 2112 1679 1676 2109 2110 1677
8 2111 1756 1757 2112 2109 1754 1755 2110
8 1679 2112 1853 1410 1677 2110 1852 1409
8 2112 1757 1486 1853 2110 1755 1487 1852
8 1446 1815 2113 1680 1447 1814 2111 1678
8 1815 1528 1758 2113 1814 1527 1756 2111
8 1680 2113 2114 1681 1678 2111 2112 1679
8 2113 1758 1759 2114 2111 1756 1757 2112
8 1681 2114 1854 1411 1679 2112 1853 1410
8 2114 1759 1485 1854 2112 1757 1486 1853
8 1445 1816 2115 1682 1446 1815 2113 1680
8 1816 1529 1760 2115 1815 1528 1758 2113
8 1682 2115 2116 1683 1680 2113 2114 1681
8 2115 1760 1761 2116 2113 1758 1759 2114
8 1683 2116 1855 1412 1681 2114 1854 1411
8 2116 1761 1484 1855 2114 1759 1485 1854
8 1444 1817 2117 1684 1445 1816 2115 1682
8 1817 1530 1762 2117 1816 1529 1760 2115
8 1684 2117 2118 1685 1682 2115 2116 1683
8 2117 1762 1763 2118 2115 1760 1761 2116
8 1685 2118 1856 1413 1683 2116 1855 1412
8 2118 1763 1483 1856 2116 1761 1484 1855
8 1443 1818 2119 1686 1444 1817 2117 1684
8 1818 1531 1764 2119 1817 1530 1762 2117
8 1686 2119 2120 1687 1684 2117 2118 1685
8 2119 1764 1765 2120 2117 1762 1763 2118
8 1687 2120 1857 1414 1685 2118 1856 1413
8 2120 1765 1482 1857 2118 1763 1483 1856
8 1442 1819 2121 1688 1443 1818 2119 1686
8 1819 1532 1766 2121 1818 1531 1764 2119
8 1688 2121 2122 1689 1686 2119 2120 1687
8 2121 1766 1767 2122 2119 1764 1765 2120
8 1689 2122 1858 1415 1687 2120 1857 1414
8 2122 1767 1481 1858 2120 1765 1482 1857
8 1441 1820 2123 1690 1442 1819 2121 1688
8 1820 1533 1768 2123 1819 1532 1766 2121
8 1690 2123 2124 1691 1688 2121 2122 1689
8 2123 1768 1769 2124 2121 1766 1767 2122
8 1691 2124 1859 1416 1689 2122 1858 1415
8 2124 1769 1480 1859 2122 1767 1481 1858
8 1440 1821 2125 1692 1441 1820 2123 1690
8 1821 1534 1770 2125 1820 1533 1768 2123
8 1692 2125 2126 1693 1690 2123 2124 1691
8 2125 1770 1771 2126 2123 1768 1769 2124
8 1693 2126 1860 1417 1691 2124 1859 1416
8 2126 1771 1479 1860 2124 1769 1480 1859
8 1439 1822 2127 1694 1440 1821 2125 1692
8 1822 1535 1772 2127 1821 1534 1770 2125
8 1694 2127 2128 1695 1692 2125 2126 1693
8 2127 1772 1773 2128 2125 1770 1771 2126
8 1695 2128 1861 1418 1693 2126 1860 1417
8 2128 1773 1478 1861 2126 1771 1479 1860
8 1438 1823 2129 1696 1439 1822 2127 1694
8 1823 1536 1774 2129 1822 1535 1772 2127
8 1696 2129 2130 1697 1694 2127 2128 1695
8 2129 1774 1775 2130 2127 1772 1773 2128
8 1697 2130 1862 1419 1695 2128 1861 1418
8 2130 1775 1477 1862 2128 1773 1478 1861
8 1437 1824 2131 1698 1438 1823 2129 1696
8 1824 1537 1776 2131 1823 1536 1774 2129
8 1698 2131 2132 1699 1696 2129 2130 1697
8 2131 1776 1777 2132 2129 1774 1775 2130
8 1699 2132 1863 1420 1697 2130 1862 1419
8 2132 1777 1476 1863 2130 1775 1477 1862
8 1436 1825 2133 1700 1437 1824 2131 1698
8 1825 1538 1778 2133 1824 1537 1776 2131
8 1700 2133 2134 1701 1698 2131 2132 1699
8 2133 1778 1779 2134 2131 1776 1777 2132
8 1701 2134 1864 1421 1699 2132 1863 1420
8 2134 1779 1475 1864 2132 1777 1476 1863
8 1435 1826 2135 1702 1436 1825 2133 1700
8 1826 1539 1780 2135 1825 1538 1778 2133
8 1702 2135 2136 1703 1700 2133 2134 1701
8 2135 1780 1781 2136 2133 1778 1779 2134
8 1703 2136 1865 1422 1701 2134 1864 1421
8 2136 1781 1474 1865 2134 1779 1475 1864
8 1434 1827 2137 1704 1435 1826 2135 1702
8 1827 1540 1782 2137 1826 1539 1780 2135
8 1704 2137 2138 1705 1702 2135 2136 1703
8 2137 1782 1783 2138 2135 1780 1781 2136
8 1705 2138 1866 1423 1703 2136 1865 1422
8 2138 1783 1473 1866 2136 1781 1474 1865
8 1433 1828 2139 1706 1434 1827 2137 1704
8 1828 1541 1784 2139 1827 1540 1782 2137
8 1706 2139 2140 1707 1704 2137 2138 1705
8 2139 1784 1785 2140 2137 1782 1783 2138
8 1707 2140 1867 1424 1705 2138 1866 1423
8 2140 1785 1472 1867 2138 1783 1473 1866
8 1432 1829 2141 1708 1433 1828 2139 1706
8 1829 1542 1786 2141 1828 1541 1784 2139
8 1708 2141 2142 1709 1706 2139 2140 1707
8 2141 1786 1787 2142 2139 1784 1785 2140
8 1709 2142 1868 1425 1707 2140 1867 1424
8 2142 1787 1471 1868 2140 1785 1472 1867
8 1431 1830 2143 1710 1432 1829 2141 1708
8 1830 1543 1788 2143 1829 1542 1786 2141
8 1710 2143 2144 1711 1708 2141 2142 1709
8 2143 1788 1789 2144 2141 1786 1787 2142
8 1711 2144 1869 1426 1709 2142 1868 1425
8 2144 1789 1470 1869 2142 1787 1471 1868
8 1430 1831 2145 1712 1431 1830 2143 1710
8 1831 1544 1790 2145 1830 1543 1788 2143
8 1712 2145 2146 1713 1710 2143 2144 1711
8 2145 1790 1791 2146 2143 1788 1789 2144
8 1713 2146 1870 1427 1711 2144 1869 1426
8 2146 1791 1469 1870 2144 1789 1470 1869
8 1429 1832 2147 1714 1430 1831 2145 1712
8 1832 1545 1792 2147 1831 1544 1790 2145
8 1714 2147 2148 1715 1712 2145 2146 1713
8 2147 1792 1793 2148 2145 1790 1791 2146
8 1715 2148 1871 1428 1713 2146 1870 1427
8 2148 1793 1468 1871 2146 1791 1469 1870
8 1373 1384 1636 1388 1429 1832 2147 1714
8 1384 1370 1386 1636 1832 1545 1792 2147
8 1388 1636 1637 1389 1714 2147 2148 1715
8 1636 1386 1385 1637 2147 1792 1793 2148
8 1389 1637 1387 1372 1715 2148 1871 1428
8 1637 1385 1371 1387 2148 1793 1468 1871
8 1507 1794 2149 1876 1367 1378 1872 1550
8 1794 1467 1954 2149 1378 1366 1546 1872
8 1876 2149 2150 1877 1550 1872 1873 1549
8 2149 1954 1955 2150 1872 1546 1547 1873
8 1877 2150 2032 1556 1549 1873 1548 1375
8 2150 1955 1633 2032 1873 1547 1374 1548
8 1508 1795 2151 1878 1507 1794 2149 1876
8 1795 1466 1956 2151 1794 1467 1954 2149
8 1878 2151 2152 1879 1876 2149 2150 1877
8 2151 1956 1957 2152 2149 1954 1955 2150
8 1879 2152 2033 1557 1877 2150 2032 1556
8 2152 1957 1632 2033 2150 1955 1633 2032
8 1509 1796 2153 1880 1508 1795 2151 1878
8 1796 1465 1958 2153 1795 1466 1956 2151
8 1880 2153 2154 1881 1878 2151 2152 1879
8 2153 1958 1959 2154 2151 1956 1957 2152
8 1881 2154 2034 1558 1879 2152 2033 1557
8 2154 1959 1631 2034 2152 1957 1632 2033
8 1510 1797 2155 1882 1509 1796 2153 1880
8 1797 1464 1960 2155 1796 1465 1958 2153
8 1882 2155 2156 1883 1880 2153 2154 1881
8 2155 1960 1961 2156 2153 1958 1959 2154
8 1883 2156 2035 1559 1881 2154 2034 1558
8 2156 1961 1630 2035 2154 1959 1631 2034
8 1511 1798 2157 1884 1510 1797 2155 1882
8 1798 1463 1962 2157 1797 1464 1960 2155
8 1884 2157 2158 1885 1882 2155 2156 1883
8 2157 1962 1963 2158 2155 1960 1961 2156
8 1885 2158 2036 1560 1883 2156 2035 1559
8 2158 1963 1629 2036 2156 1961 1630 2035
8 1512 1799 2159 1886 1511 1798 2157 1884
8 1799 1462 1964 2159 1798 1463 1962 2157
8 1886 2159 2160 1887 1884 2157 2158 1885
8 2159 1964 1965 2160 2157 1962 1963 2158
8 1887 2160 2037 1561 1885 2158 2036 1560
8 2160 1965 1628 2037 2158 1963 1629 2036
8 1513 1800 2161 1888 1512 1799 2159 1886
8 1800 1461 1966 2161 1799 1462 1964 2159
8 1888 2161 2162 1889 1886 2159 2160 1887
8 2161 1966 1967 2162 2159 1964 1965 2160
8 1889 2162 2038 1562 1887 2160 2037 1561
8 2162 1967 1627 2038 2160 1965 1628 2037
8 1514 1801 2163 1890 1513 1800 2161 1888
8 1801 1460 1968 2163 1800 1461 1966 2161
8 1890 2163 2164 1891 1888 2161 2162 1889
8 2163 1968 1969 2164 2161 1966 1967 2162
8 1891 2164 2039 1563 1889 2162 2038 1562
8 2164 1969 1626 2039 2162 1967 1627 2038
8 1515 1802 2165 1892 1514 1801 2163 1890
8 1802 1459 1970 2165 1801 1460 1968 2163
8 1892 2165 2166 1893 1890 2163 2164 1891
8 2165 1970 1971 2166 2163 1968 1969 2164
8 1893 2166 2040 1564 1891 2164 2039 1563
8 2166 1971 1625 2040 2164 1969 1626 2039
8 1516 1803 2167 1894 1515 1802 2165 1892
8 1803 1458 1972 2167 1802 1459 1970 2165
8 1894 2167 2168 1895 1892 2165 2166 1893
8 2167 1972 1973 2168 2165 1970 1971 2166
8 1895 2168 2041 1565 1893 2166 2040 1564
8 2168 1973 1624 2041 2166 1971 1625 2040
8 1517 1804 2169 1896 1516 1803 2167 1894
8 1804 1457 1974 2169 1803 1458 1972 2167
8 1896 2169 2170 1897 1894 2167 2168 1895
8 2169 1974 1975 2170 2167 1972 1973 2168
8 1897 2170 2042 1566 1895 2168 2041 1565
8 2170 1975 1623 2042 2168 1973 1624 2041
8 1518 1805 2171 1898 1517 1804 2169 1896
8 1805 1456 1976 2171 1804 1457 1974 2169
8 1898 2171 2172 1899 1896 2169 2170 1897
8 2171 1976 1977 2172 2169 1974 1975 2170
8 1899 2172 2043 1567 1897 2170 2042 1566
8 2172 1977 1622 2043 2170 1975 1623 2042
8 1519 1806 2173 1900 1518 1805 2171 1898
8 1806 1455 1978 2173 1805 1456 1976 2171
8 1900 2173 2174 1901 1898 2171 2172 1899
8 2173 1978 1979 2174 2171 1976 1977 2172
8 1901 2174 2044 1568 1899 2172 2043 1567
8 2174 1979 1621 2044 2172 1977 1622 2043
8 1520 1807 2175 1902 1519 1806 2173 1900
8 1807 1454 1980 2175 1806 1455 1978 2173
8 1902 2175 2176 1903 1900 2173 2174 1901
8 2175 1980 1981 2176 2173 1978 1979 2174
8 1903 2176 2045 1569 1901 2174 2044 1568
8 2176 1981 1620 2045 2174 1979 1621 2044
8 1521 1808 2177 1904 1520 1807 2175 1902
8 1808 1453 1982 2177 1807 1454 1980 2175
8 1904 2177 2178 1905 1902 2175 2176 1903
8 2177 1982 1983 2178 2175 1980 1981 2176
8 1905 2178 2046 1570 1903 2176 2045 1569
8 2178 1983 1619 2046 2176 1981 1620 2045
8 1522 1809 2179 1906 1521 1808 2177 1904
8 1809 1452 1984 2179 1808 1453 1982 2177
8 1906 2179 2180 1907 1904 2177 2178 1905
8 2179 1984 1985 2180 2177 1982 1983 2178
8 1907 2180 2047 1571 1905 2178 2046 1570
8 2180 1985 1618 2047 2178 1983 1619 2046
8 1523 1810 2181 1908 1522 1809 2179 1906
8 1810 1451 1986 2181 1809 1452 1984 2179
8 1908 2181 2182 1909 1906 2179 2180 1907
8 2181 1986 1987 2182 2179 1984 1985 2180
8 1909 2182 2048 1572 1907 2180 2047 1571
8 2182 1987 1617 2048 2180 1985 1618 2047
8 1524 1811 2183 1910 1523 1810 2181 1908
8 1811 1450 1988 2183 1810 1451 1986 2181
8 1910 2183 2184 1911 1908 2181 2182 1909
8 2183 1988 1989 2184 2181 1986 1987 2182
8 1911 2184 2049 1573 1909 2182 2048 1572
8 2184 1989 1616 2049 2182 1987 1617 2048
8 1525 1812 2185 1912 1524 1811 2183 1910
8 1812 1449 1990 2185 1811 1450 1988 2183
8 1912 2185 2186 1913 1910 2183 2184 1911
8 2185 1990 1991 2186 2183 1988 1989 2184
8 1913 2186 2050 1574 1911 2184 2049 1573
8 2186 1991 1615 2050 2184 1989 1616 2049
8 1526 1813 2187 1914 1525 1812 2185 1912
8 1813 1448 1992 2187 1812 1449 1990 2185
8 1914 2187 2188 1915 1912 2185 2186 1913
8 2187 1992 1993 2188 2185 1990 1991 2186
8 1915 2188 2051 1575 1913 2186 2050 1574
8 2188 1993 1614 2051 2186 1991 1615 2050
8 1527 1814 2189 1916 1526 1813 2187 1914
8 1814 1447 1994 2189 1813 1448 1992 2187
8 1916 2189 2190 1917 1914 2187 2188 1915
8 2189 1994 1995 2190 2187 1992 1993 2188
8 1917 2190 2052 1576 1915 2188 2051 1575
8 2190 1995 1613 2052 2188 1993 1614 2051
8 1528 1815 2191 1918 1527 1814 2189 1916
8 1815 1446 1996 2191 1814 1447 1994 2189
8 1918 2191 2192 1919 1916 2189 2190 1917
8 2191 1996 1997 2192 2189 1994 1995 2190
8 1919 2192 2053 1577 1917 2190 2052 1576
8 2192 1997 1612 2053 2190 1995 1613 2052
8 1529 1816 2193 1920 1528 1815 2191 1918
8 1816 1445 1998 2193 1815 1446 1996 2191
8 1920 2193 2194 1921 1918 2191 2192 1919
8 2193 1998 1999 2194 2191 1996 1997 2192
8 1921 2194 2054 1578 1919 2192 2053 1577
8 2194 1999 1611 2054 2192 1997 1612 2053
8 1530 1817 2195 1922 1529 1816 2193 1920
8 1817 1444 2000 2195 1816 1445 1998 2193
8 1922 2195 2196 1923 1920 2193 2194 1921
8 2195 2000 2001 2196 2193 1998 1999 2194
8 1923 2196 2055 1579 1921 2194 2054 1578
8 2196 2001 1610 2055 2194 1999 1611 2054
8 1531 1818 2197 1924 1530 1817 2195 1922
8 1818 1443 2002 2197 1817 1444 2000 2195
8 1924 2197 2198 1925 1922 2195 2196 1923
8 2197 2002 2003 2198 2195 2000 2001 2196
8 1925 2198 2056 1580 1923 2196 2055 1579
8 2198 2003 1609 2056 2196 2001 1610 2055
8 1532 1819 2199 1926 1531 1818 2197 1924
8 1819 1442 2004 2199 1818 1443 2002 2197
8 1926 2199 2200 1927 1924 2197 2198 1925
8 2199 2004 2005 2200 2197 2002 2003 2198
8 1927 2200 2057 1581 1925 2198 2056 1580
8 2200 2005 1608 2057 2198 2003 1609 2056
8 1533 1820 2201 1928 1532 1819 2199 1926
8 1820 1441 2006 2201 1819 1442 2004 2199
8 1928 2201 2202 1929 1926 2199 2200 1927
8 2201 2006 2007 2202 2199 2004 2005 2200
8 1929 2202 2058 1582 1927 2200 2057 1581
8 2202 2007 1607 2058 2200 2005 1608 2057
8 1534 1821 2203 1930 1533 1820 2201 1928
8 1821 1440 2008 2203 1820 1441 2006 2201
8 1930 2203 2204 1931 1928 2201 2202 1929
8 2203 2008 2009 2204 2201 2006 2007 2202
8 1931 2204 2059 1583 1929 2202 2058 1582
8 2204 2009 1606 2059 2202 2007 1607 2058
8 1535 1822 2205 1932 1534 1821 2203 1930
8 1822 1439 2010 2205 1821 1440 2008 2203
8 1932 2205 2206 1933 1930 2203 2204 1931
8 2205 2010 2011 2206 2203 2008 2009 2204
8 1933 2206 2060 1584 1931 2204 2059 1583
8 2206 2011 1605 2060 2204 2009 1606 2059
8 1536 1823 2207 1934 1535 1822 2205 1932
8 1823 1438 2012 2207 1822 1439 2010 2205
8 1934 2207 2208 1935 1932 2205 2206 1933
8 2207 2012 2013 2208 2205 2010 2011 2206
8 1935 2208 2061 1585 1933 2206 2060 1584
8 2208 2013 1604 2061 2206 2011 1605 2060
8 1537 1824 2209 1936 1536 1823 2207 1934
8 1824 1437 2014 2209 1823 1438 2012 2207
8 1936 2209 2210 1937 1934 2207 2208 1935
8 2209 2014 2015 2210 2207 2012 2013 2208
8 1937 2210 2062 1586 1935 2208 2061 1585
8 2210 2015 1603 2062 2208 2013 1604 2061
8 1538 1825 2211 1938 1537 1824 2209 1936
8 1825 1436 2016 2211 1824 1437 2014 2209
8 1938 2211 2212 1939 1936 2209 2210 1937
8 2211 2016 2017 2212 2209 2014 2015 2210
8 1939 2212 2063 1587 1937 2210 2062 1586
8 2212 2017 1602 2063 2210 2015 1603 2062
8 1539 1826 2213 1940 1538 1825 2211 1938
8 1826 1435 2018 2213 1825 1436 2016 2211
8 1940 2213 2214 1941 1938 2211 2212 1939
8 2213 2018 2019 2214 2211 2016 2017 2212
8 1941 2214 2064 1588 1939 2212 2063 1587
8 2214 2019 1601 2064 2212 2017 1602 2063
8 1540 1827 2215 1942 1539 1826 2213 1940
8 1827 1434 2020 2215 1826 1435 2018 2213
8 1942 2215 2216 1943 1940 2213 2214 1941
8 2215 2020 2021 2216 2213 2018 2019 2214
8 1943 2216 2065 1589 1941 2214 2064 1588
8 2216 2021 1600 2065 2214 2019 1601 2064
8 1541 1828 2217 1944 1540 1827 2215 1942
8 1828 1433 2022 2217 1827 1434 2020 2215
8 1944 2217 2218 1945 1942 2215 2216 1943
8 2217 2022 2023 2218 2215 2020 2021 2216
8 1945 2218 2066 1590 1943 2216 2065 1589
8 2218 2023 1599 2066 2216 2021 1600 2065
8 1542 1829 2219 1946 1541 1828 2217 1944
8 1829 1432 2024 2219 1828 1433 2022 2217
8 1946 2219 2220 1947 1944 2217 2218 1945
8 2219 2024 2025 2220 2217 2022 2023 2218
8 1947 2220 2067 1591 1945 2218 2066 1590
8 2220 2025 1598 2067 2218 2023 1599 2066
8 1543 1830 2221 1948 1542 1829 2219 1946
8 1830 1431 2026 2221 1829 1432 2024 2219
8 1948 2221 2222 1949 1946 2219 2220 1947
8 2221 2026 2027 2222 2219 2024 2025 2220
8 1949 2222 2068 1592 1947 2220 2067 1591
8 2222 2027 1597 2068 2220 2025 1598 2067
8 1544 1831 2223 1950 1543 1830 2221 1948
8 1831 1430 2028 2223 1830 1431 2026 2221
8 1950 2223 2224 1951 1948 2221 2222 1949
8 2223 2028 2029 2224 2221 2026 2027 2222
8 1951 2224 2069 1593 1949 2222 2068 1592
8 2224 2029 1596 2069 2222 2027 1597 2068
8 1545 1832 2225 1952 1544 1831 2223 1950
8 1832 1429 2030 2225 1831 1430 2028 2223
8 1952 2225 2226 1953 1950 2223 2224 1951
8 2225 2030 2031 2226 2223 2028 2029 2224
8 1953 2226 2070 1594 1951 2224 2069 1593
8 2226 2031 1595 2070 2224 2029 1596 2069
8 1370 1384 1874 1554 1545 1832 2225 1952
8 1384 1373 1552 1874 1832 1429 2030 2225
8 1554 1874 1875 1555 1952 2225 2226 1953
8 1874 1552 1551 1875 2225 2030 2031 2226
8 1555 1875 1553 1377 1953 2226 2070 1594
8 1875 1551 1376 1553 2226 2031 1595 2070
8 2283 2458 2611 2368 2227 2237 2338 2252
8 2458 2459 2612 2611 2237 2238 2339 2338
8 2459 2460 2613 2612 2238 2239 2340 2339
8 2460 2293 2413 2613 2239 2228 2240 2340
8 2368 2611 2614 2369 2252 2338 2341 2251
8 2611 2612 2615 2614 2338 2339 2342 2341
8 2612 2613 2616 2615 2339 2340 2343 2342
8 2613 2413 2414 2616 2340 2240 2241 2343
8 2369 2614 2617 2370 2251 2341 2344 2250
8 2614 2615 2618 2617 2341 2342 2345 2344
8 2615 2616 2619 2618 2342 2343 2346 2345
8 2616 2414 2415 2619 2343 2241 2242 2346
8 2370 2617 2620 2371 2250 2344 2347 2249
8 2617 2618 2621 2620 2344 2345 2348 2347
8 2618 2619 2622 2621 2345 2346 2349 2348
8 2619 2415 2416 2622 2346 2242 2243 2349
8 2371 2620 2623 2372 2249 2347 2350 2248
8 2620 2621 2624 2623 2347 2348 2351 2350
8 2621 2622 2625 2624 2348 2349 2352 2351
8 2622 2416 2417 2625 2349 2243 2244 2352
8 2372 2623 2485 2266 2248 2350 2247 2230
8 2623 2624 2486 2485 2350 2351 2246 2247
8 2624 2625 2487 2486 2351 2352 2245 2246
8 2625 2417 2292 2487 2352 2244 2229 2245
8 2282 2461 2626 2373 2283 2458 2611 2368
8 2461 2462 2627 2626 2458 2459 2612 2611
8 2462 2463 2628 2627 2459 2460 2613 2612
8 2463 2294 2418 2628 2460 2293 2413 2613
8 2373 2626 2629 2374 2368 2611 2614 2369
8 2626 2627 2630 2629 2611 2612 2615 2614
8 2627 2628 2631 2630 2612 2613 2616 2615
8 2628 2418 2419 2631 2613 2413 2414 2616
8 2374 2629 2632 2375 2369 2614 2617 2370
8 2629 2630 2633 2632 2614 2615 2618 2617
8 2630 2631 2634 2633 2615 2616 2619 2618
8 2631 2419 2420 2634 2616 2414 2415 2619
8 2375 2632 2635 2376 2370 2617 2620 2371
8 2632 2633 2636 2635 2617 2618 2621 2620
8 2633 2634 2637 2636 2618 2619 2622 2621
8 2634 2420 2421 2637 2619 2415 2416 2622
8 2376 2635 2638 2377 2371 2620 2623 2372
8 2635 2636 2639 2638 2620 2621 2624 2623
8 2636 2637 2640 2639 2621 2622 2625 2624
8 2637 2421 2422 2640 2622 2416 2417 2625
8 2377 2638 2488 2267 2372 2623 2485 2266
8 2638 2639 2489 2488 2623 2624 2486 2485
8 2639 2640 2490 2489 2624 2625 2487 2486
8 2640 2422 2291 2490 2625 2417 2292 2487
8 2281 2464 2641 2378 2282 2461 2626 2373
8 2464 2465 2642 2641 2461 2462 2627 2626
8 2465 2466 2643 2642 2462 2463 2628 2627
8 2466 2295 2423 2643 2463 2294 2418 2628
8 2378 2641 2644 2379 2373 2626 2629 2374
8 2641 2642 2645 2644 2626 2627 2630 2629
8 2642 2643 2646 2645 2627 2628 2631 2630
8 2643 2423 2424 2646 2628 2418 2419 2631
8 2379 2644 2647 2380 2374 2629 2632 2375
8 2644 2645 2648 2647 2629 2630 2633 2632
8 2645 2646 2649 2648 2630 2631 2634 2633
8 2646 2424 2425 2649 2631 2419 2420 2634
8 2380 2647 2650 2381 2375 2632 2635 2376
8 2647 2648 2651 2650 2632 2633 2636 2635
8 2648 2649 2652 2651 2633 2634 2637 2636
8 2649 2425 2426 2652 2634 2420 2421 2637
8 2381 2650 2653 2382 2376 2635 2638 2377
8 2650 2651 2654 2653 2635 2636 2639 2638
8 2651 2652 2655 2654 2636 2637 2640 2639
8 2652 2426 2427 2655 2637 2421 2422 2640
8 2382 2653 2491 2268 2377 2638 2488 2267
8 2653 2654 2492 2491 2638 2639 2489 2488
8 2654 2655 2493 2492 2639 2640 2490 2489
8 2655 2427 2290 2493 2640 2422 2291 2490
8 2280 2467 2656 2383 2281 2464 2641 2378
8 2467 2468 2657 2656 2464 2465 2642 2641
8 2468 2469 2658 2657 2465 2466 2643 2642
8 2469 2296 2428 2658 2466 2295 2423 2643
8 2383 2656 2659 2384 2378 2641 2644 2379
8 2656 2657 2660 2659 2641 2642 2645 2644
8 2657 2658 2661 2660 2642 2643 2646 2645
8 2658 2428 2429 2661 2643 2423 2424 2646
8 2384 2659 2662 2385 2379 2644 2647 2380
8 2659 2660 2663 2662 2644 2645 2648 2647
8 2660 2661 2664 2663 2645 2646 2649 2648
8 2661 2429 2430 2664 2646 2424 2425 2649
8 2385 2662 2665 2386 2380 2647 2650 2381
8 2662 2663 2666 2665 2647 2648 2651 2650
8 2663 2664 2667 2666 2648 2649 2652 2651
8 2664 2430 2431 2667 2649 2425 2426 2652
8 2386 2665 2668 2387 2381 2650 2653 2382
8 2665 2666 2669 2668 2650 2651 2654 2653
8 2666 2667 2670 2669 2651 2652 2655 2654
8 2667 2431 2432 2670 2652 2426 2427 2655
8 2387 2668 2494 2269 2382 2653 2491 2268
8 2668 2669 2495 2494 2653 2654 2492 2491
8 2669 2670 2496 2495 2654 2655 2493 2492
8 2670 2432 2289 2496 2655 2427 2290 2493
8 2279 2470 2671 2388 2280 2467 2656 2383
8 2470 2471 2672 2671 2467 2468 2657 2656
8 2471 2472 2673 2672 2468 2469 2658 2657
8 2472 2297 2433 2673 2469 2296 2428 2658
8 2388 2671 2674 2389 2383 2656 2659 2384
8 2671 2672 2675 2674 2656 2657 2660 2659
8 2672 2673 2676 2675 2657 2658 2661 2660
8 2673 2433 2434 2676 2658 2428 2429 2661
8 2389 2674 2677 2390 2384 2659 2662 2385
8 2674 2675 2678 2677 2659 2660 2663 2662
8 2675 2676 2679 2678 2660 2661 2664 2663
8 2676 2434 2435 2679 2661 2429 2430 2664
8 2390 2677 2680 2391 2385 2662 2665 2386
8 2677 2678 2681 2680 2662 2663 2666 2665
8 2678 2679 2682 2681 2663 2664 2667 2666
8 2679 2435 2436 2682 2664 2430 2431 2667
8 2391 2680 2683 2392 2386 2665 2668 2387
8 2680 2681 2684 2683 2665 2666 2669 2668
8 2681 2682 2685 2684 2666 2667 2670 2669
8 2682 2436 2437 2685 2667 2431 2432 2670
8 2392 2683 2497 2270 2387 2668 2494 2269
8 2683 2684 2498 2497 2668 2669 2495 2494
8 2684 2685 2499 2498 2669 2670 2496 2495
8 2685 2437 2288 2499 2670 2432 2289 2496
8 2278 2473 2686 2393 2279 2470 2671 2388
8 2473 2474 2687 2686 2470 2471 2672 2671
8 2474 2475 2688 2687 2471 2472 2673 2672
8 2475 2298 2438 2688 2472 2297 2433 2673
8 2393 2686 2689 2394 2388 2671 2674 2389
8 2686 2687 2690 2689 2671 2672 2675 2674
8 2687 2688 2691 2690 2672 2673 2676 2675
8 2688 2438 2439 2691 2673 2433 2434 2676
8 2394 2689 2692 2395 2389 2674 2677 2390
8 2689 2690 2693 2692 2674 2675 2678 2677
8 2690 2691 2694 2693 2675 2676 2679 2678
8 2691 2439 2440 2694 2676 2434 2435 2679
8 2395 2692 2695 2396 2390 2677 2680 2391
8 2692 2693 2696 2695 2677 2678 2681 2680
8 2693 2694 2697 2696 2678 2679 2682 2681
8 2694 2440 2441 2697 2679 2435 2436 2682
8 2396 2695 2698 2397 2391 2680 2683 2392
8 2695 2696 2699 2698 2680 2681 2684 2683
8 2696 2697 2700 2699 2681 2682 2685 2684
8 2697 2441 2442 2700 2682 2436 2437 2685
8 2397 2698 2500 2271 2392 2683 2497 2270
8 2698 2699 2501 2500 2683 2684 2498 2497
8 2699 2700 2502 2501 2684 2685 2499 2498
8 2700 2442 2287 2502 2685 2437 2288 2499
8 2277 2476 2701 2398 2278 2473 2686 2393
8 2476 2477 2702 2701 2473 2474 2687 2686
8 2477 2478 2703 2702 2474 2475 2688 2687
8 2478 2299 2443 2703 2475 2298 2438 2688
8 2398 2701 2704 2399 2393 2686 2689 2394
8 2701 2702 2705 2704 2686 2687 2690 2689
8 2702 2703 2706 2705 2687 2688 2691 2690
8 2703 2443 2444 2706 2688 2438 2439 2691
8 2399 2704 2707 2400 2394 2689 2692 2395
8 2704 2705 2708 2707 2689 2690 2693 2692
8 2705 2706 2709 2708 2690 2691 2694 2693
8 2706 2444 2445 2709 2691 2439 2440 2694
8 2400 2707 2710 2401 2395 2692 2695 2396
8 2707 2708 2711 2710 2692 2693 2696 2695
8 2708 2709 2712 2711 2693 2694 2697 2696
8 2709 2445 2446 2712 2694 2440 2441 2697
8 2401 2710 2713 2402 2396 2695 2698 2397
8 2710 2711 2714 2713 2695 2696 2699 2698
8 2711 2712 2715 2714 2696 2697 2700 2699
8 2712 2446 2447 2715 2697 2441 2442 2700
8 2402 2713 2503 2272 2397 2698 2500 2271
8 2713 2714 2504 2503 2698 2699 2501 2500
8 2714 2715 2505 2504 2699 2700 2502 2501
8 2715 2447 2286 2505 2700 2442 2287 2502
8 2276 2479 2716 2403 2277 2476 2701 2398
8 2479 2480 2717 2716 2476 2477 2702 2701
8 2480 2481 2718 2717 2477 2478 2703 2702
8 2481 2300 2448 2718 2478 2299 2443 2703
8 2403 2716 2719 2404 2398 2701 2704 2399
8 2716 2717 2720 2719 2701 2702 2705 2704
8 2717 2718 2721 2720 2702 2703 2706 2705
8 2718 2448 2449 2721 2703 2443 2444 2706
8 2404 2719 2722 2405 2399 2704 2707 2400
8 2719 2720 2723 2722 2704 2705 2708 2707
8 2720 2721 2724 2723 2705 2706 2709 2708
8 2721 2449 2450 2724 2706 2444 2445 2709
8 2405 2722 2725 2406 2400 2707 2710 2401
8 2722 2723 2726 2725 2707 2708 2711 2710
8 2723 2724 2727 2726 2708 2709 2712 2711
8 2724 2450 2451 2727 2709 2445 2446 2712
8 2406 2725 2728 2407 2401 2710 2713 2402
8 2725 2726 2729 2728 2710 2711 2714 2713
8 2726 2727 2730 2729 2711 2712 2715 2714
8 2727 2451 2452 2730 2712 2446 2447 2715
8 2407 2728 2506 2273 2402 2713 2503 2272
8 2728 2729 2507 2506 2713 2714 2504 2503
8 2729 2730 2508 2507 2714 2715 2505 2504
8 2730 2452 2285 2508 2715 2447 2286 2505
8 2275 2482 2731 2408 2276 2479 2716 2403
8 2482 2483 2732 2731 2479 2480 2717 2716
8 2483 2484 2733 2732 2480 2481 2718 2717
8 2484 2301 2453 2733 2481 2300 2448 2718
8 2408 2731 2734 2409 2403 2716 2719 2404
8 2731 2732 2735 2734 2716 2717 2720 2719
8 2732 2733 2736 2735 2717 2718 2721 2720
8 2733 2453 2454 2736 2718 2448 2449 2721
8 2409 2734 2737 2410 2404 2719 2722 2405
8 2734 2735 2738 2737 2719 2720 2723 2722
8 2735 2736 2739 2738 2720 2721 2724 2723
8 2736 2454 2455 2739 2721 2449 2450 2724
8 2410 2737 2740 2411 2405 2722 2725 2406
8 2737 2738 2741 2740 2722 2723 2726 2725
8 2738 2739 2742 2741 2723 2724 2727 2726
8 2739 2455 2456 2742 2724 2450 2451 2727
8 2411 2740 2743 2412 2406 2725 2728 2407
8 2740 2741 2744 2743 2725 2726 2729 2728
8 2741 2742 2745 2744 2726 2727 2730 2729
8 2742 2456 2457 2745 2727 2451 2452 2730
8 2412 2743 2509 2274 2407 2728 2506 2273
8 2743 2744 2510 2509 2728 2729 2507 2506
8 2744 2745 2511 2510 2729 2730 2508 2507
8 2745 2457 2284 2511 2730 2452 2285 2508
8 2232 2255 2353 2261 2275 2482 2731 2408
8 2255 2254 2354 2353 2482 2483 2732 2731
8 2254 2253 2355 2354 2483 2484 2733 2732
8 2253 2231 2260 2355 2484 2301 2453 2733
8 2261 2353 2356 2262 2408 2731 2734 2409
8 2353 2354 2357 2356 2731 2732 2735 2734
8 2354 2355 2358 2357 2732 2733 2736 2735
8 2355 2260 2259 2358 2733 2453 2454 2736
8 2262 2356 2359 2263 2409 2734 2737 2410
8 2356 2357 2360 2359 2734 2735 2738 2737
8 2357 2358 2361 2360 2735 2736 2739 2738
8 2358 2259 2258 2361 2736 2454 2455 2739
8 2263 2359 2362 2264 2410 2737 2740 2411
8 2359 2360 2363 2362 2737 2738 2741 2740
8 2360 2361 2364 2363 2738 2739 2742 2741
8 2361 2258 2257 2364 2739 2455 2456 2742
8 2264 2362 2365 2265 2411 2740 2743 2412
8 2362 2363 2366 2365 2740 2741 2744 2743
8 2363 2364 2367 2366 2741 2742 2745 2744
8 2364 2257 2256 2367 2742 2456 2457 2745
8 2265 2365 202 19 2412 2743 2509 2274
8 2365 2366 203 202 2743 2744 2510 2509
8 2366 2367 204 203 2744 2745 2511 2510
8 2367 2256 18 204 2745 2457 2284 2511
8 2293 2460 2746 2530 2228 2239 2512 2310
8 2460 2459 2747 2746 2239 2238 2513 2512
8 2459 2458 2748 2747 2238 2237 2514 2513
8 2458 2283 2557 2748 2237 2227 2302 2514
8 2530 2746 2749 2531 2310 2512 2515 2309
8 2746 2747 2750 2749 2512 2513 2516 2515
8 2747 2748 2751 2750 2513 2514 2517 2516
8 2748 2557 2558 2751 2514 2302 2303 2517
8 2531 2749 2752 2532 2309 2515 2518 2308
8 2749 2750 2753 2752 2515 2516 2519 2518
8 2750 2751 2754 2753 2516 2517 2520 2519
8 2751 2558 2559 2754 2517 2303 2304 2520
8 2532 2752 2584 2320 2308 2518 2307 2234
8 2752 2753 2585 2584 2518 2519 2306 2307
8 2753 2754 2586 2585 2519 2520 2305 2306
8 2754 2559 2337 2586 2520 2304 2233 2305
8 2294 2463 2755 2533 2293 2460 2746 2530
8 2463 2462 2756 2755 2460 2459 2747 2746
8 2462 2461 2757 2756 2459 2458 2748 2747
8 2461 2282 2560 2757 2458 2283 2557 2748
8 2533 2755 2758 2534 2530 2746 2749 2531
8 2755 2756 2759 2758 2746 2747 2750 2749
8 2756 2757 2760 2759 2747 2748 2751 2750
8 2757 2560 2561 2760 2748 2557 2558 2751
8 2534 2758 2761 2535 2531 2749 2752 2532
8 2758 2759 2762 2761 2749 2750 2753 2752
8 2759 2760 2763 2762 2750 2751 2754 2753
8 2760 2561 2562 2763 2751 2558 2559 2754
8 2535 2761 2587 2321 2532 2752 2584 2320
8 2761 2762 2588 2587 2752 2753 2585 2584
8 2762 2763 2589 2588 2753 2754 2586 2585
8 2763 2562 2336 2589 2754 2559 2337 2586
8 2295 2466 2764 2536 2294 2463 2755 2533
8 2466 2465 2765 2764 2463 2462 2756 2755
8 2465 2464 2766 2765 2462 2461 2757 2756
8 2464 2281 2563 2766 2461 2282 2560 2757
8 2536 2764 2767 2537 2533 2755 2758 2534
8 2764 2765 2768 2767 2755 2756 2759 2758
8 2765 2766 2769 2768 2756 2757 2760 2759
8 2766 2563 2564 2769 2757 2560 2561 2760
8 2537 2767 2770 2538 2534 2758 2761 2535
8 2767 2768 2771 2770 2758 2759 2762 2761
8 2768 2769 2772 2771 2759 2760 2763 2762
8 2769 2564 2565 2772 2760 2561 2562 2763
8 2538 2770 2590 2322 2535 2761 2587 2321
8 2770 2771 2591 2590 2761 2762 2588 2587
8 2771 2772 2592 2591 2762 2763 2589 2588
8 2772 2565 2335 2592 2763 2562 2336 2589
8 2296 2469 2773 2539 2295 2466 2764 2536
8 2469 2468 2774 2773 2466 2465 2765 2764
8 2468 2467 2775 2774 2465 2464 2766 2765
8 2467 2280 2566 2775 2464 2281 2563 2766
8 2539 2773 2776 2540 2536 2764 2767 2537
8 2773 2774 2777 2776 2764 2765 2768 2767
8 2774 2775 2778 2777 2765 2766 2769 2768
8 2775 2566 2567 2778 2766 2563 2564 2769
8 2540 2776 2779 2541 2537 2767 2770 2538
8 2776 2777 2780 2779 2767 2768 2771 2770
8 2777 2778 2781 2780 2768 2769 2772 2771
8 2778 2567 2568 2781 2769 2564 2565 2772
8 2541 2779 2593 2323 2538 2770 2590 2322
8 2779 2780 2594 2593 2770 2771 2591 2590
8 2780 2781 2595 2594 2771 2772 2592 2591
8 2781 2568 2334 2595 2772 2565 2335 2592
8 2297 2472 2782 2542 2296 2469 2773 2539
8 2472 2471 2783 2782 2469 2468 2774 2773
8 2471 2470 2784 2783 2468 2467 2775 2774
8 2470 2279 2569 2784 2467 2280 2566 2775
8 2542 2782 2785 2543 2539 2773 2776 2540
8 2782 2783 2786 2785 2773 2774 2777 2776
8 2783 2784 2787 2786 2774 2775 2778 2777
8 2784 2569 2570 2787 2775 2566 2567 2778
8 2543 2785 2788 2544 2540 2776 2779 2541
8 2785 2786 2789 2788 2776 2777 2780 2779
8 2786 2787 2790 2789 2777 2778 2781 2780
8 2787 2570 2571 2790 2778 2567 2568 2781
8 2544 2788 2596 2324 2541 2779 2593 2323
8 2788 2789 2597 2596 2779 2780 2594 2593
8 2789 2790 2598 2597 2780 2781 2595 2594
8 2790 2571 2333 2598 2781 2568 2334 2595
8 2298 2475 2791 2545 2297 2472 2782 2542
8 2475 2474 2792 2791 2472 2471 2783 2782
8 2474 2473 2793 2792 2471 2470 2784 2783
8 2473 2278 2572 2793 2470 2279 2569 2784
8 2545 2791 2794 2546 2542 2782 2785 2543
8 2791 2792 2795 2794 2782 2783 2786 2785
8 2792 2793 2796 2795 2783 2784 2787 2786
8 2793 2572 2573 2796 2784 2569 2570 2787
8 2546 2794 2797 2547 2543 2785 2788 2544
8 2794 2795 2798 2797 2785 2786 2789 2788
8 2795 2796 2799 2798 2786 2787 2790 2789
8 2796 2573 2574 2799 2787 2570 2571 2790
8 2547 2797 2599 2325 2544 2788 2596 2324
8 2797 2798 2600 2599 2788 2789 2597 2596
8 2798 2799 2601 2600 2789 2790 2598 2597
8 2799 2574 2332 2601 2790 2571 2333 2598
8 2299 2478 2800 2548 2298 2475 2791 2545
8 2478 2477 2801 2800 2475 2474 2792 2791
8 2477 2476 2802 2801 2474 2473 2793 2792
8 2476 2277 2575 2802 2473 2278 2572 2793
8 2548 2800 2803 2549 2545 2791 2794 2546
8 2800 2801 2804 2803 2791 2792 2795 2794
8 2801 2802 2805 2804 2792 2793 2796 2795
8 2802 2575 2576 2805 2793 2572 2573 2796
8 2549 2803 2806 2550 2546 2794 2797 2547
8 2803 2804 2807 2806 2794 2795 2798 2797
8 2804 2805 2808 2807 2795 2796 2799 2798
8 2805 2576 2577 2808 2796 2573 2574 2799
8 2550 2806 2602 2326 2547 2797 2599 2325
8 2806 2807 2603 2602 2797 2798 2600 2599
8 2807 2808 2604 2603 2798 2799 2601 2600
8 2808 2577 2331 2604 2799 2574 2332 2601
8 2300 2481 2809 2551 2299 2478 2800 2548
8 2481 2480 2810 2809 2478 2477 2801 2800
8 2480 2479 2811 2810 2477 2476 2802 2801
8 2479 2276 2578 2811 2476 2277 2575 2802
8 2551 2809 2812 2552 2548 2800 2803 2549
8 2809 2810 2813 2812 2800 2801 2804 2803
8 2810 2811 2814 2813 2801 2802 2805 2804
8 2811 2578 2579 2814 2802 2575 2576 2805
8 2552 2812 2815 2553 2549 2803 2806 2550
8 2812 2813 2816 2815 2803 2804 2807 2806
8 2813 2814 2817 2816 2804 2805 2808 2807
8 2814 2579 2580 2817 2805 2576 2577 2808
8 2553 2815 2605 2327 2550 2806 2602 2326
8 2815 2816 2606 2605 2806 2807 2603 2602
8 2816 2817 2607 2606 2807 2808 2604 2603
8 2817 2580 2330 2607 2808 2577 2331 2604
8 2301 2484 2818 2554 2300 2481 2809 2551
8 2484 2483 2819 2818 2481 2480 2810 2809
8 2483 2482 2820 2819 2480 2479 2811 2810
8 2482 2275 2581 2820 2479 2276 2578 2811
8 2554 2818 2821 2555 2551 2809 2812 2552
8 2818 2819 2822 2821 2809 2810 2813 2812
8 2819 2820 2823 2822 2810 2811 2814 2813
8 2820 2581 2582 2823 2811 2578 2579 2814
8 2555 2821 2824 2556 2552 2812 2815 2553
8 2821 2822 2825 2824 2812 2813 2816 2815
8 2822 2823 2826 2825 2813 2814 2817 2816
8 2823 2582 2583 2826 2814 2579 2580 2817
8 2556 2824 2608 2328 2553 2815 2605 2327
8 2824 2825 2609 2608 2815 2816 2606 2605
8 2825 2826 2610 2609 2816 2817 2607 2606
8 2826 2583 2329 2610 2817 2580 2330 2607
8 2231 2253 2521 2317 2301 2484 2818 2554
8 2253 2254 2522 2521 2484 2483 2819 2818
8 2254 2255 2523 2522 2483 2482 2820 2819
8 2255 2232 2313 2523 2482 2275 2581 2820
8 2317 2521 2524 2318 2554 2818 2821 2555
8 2521 2522 2525 2524 2818 2819 2822 2821
8 2522 2523 2526 2525 2819 2820 2823 2822
8 2523 2313 2312 2526 2820 2581 2582 2823
8 2318 2524 2527 2319 2555 2821 2824 2556
8 2524 2525 2528 2527 2821 2822 2825 2824
8 2525 2526 2529 2528 2822 2823 2826 2825
8 2526 2312 2311 2529 2823 2582 2583 2826
8 2319 2527 2314 2236 2556 2824 2608 2328
8 2527 2528 2315 2314 2824 2825 2609 2608
8 2528 2529 2316 2315 2825 2826 2610 2609
8 2529 2311 2235 2316 2826 2583 2329 2610
8 2883 3058 3211 2968 2827 2837 2938 2849
8 3058 3059 3212 3211 2837 2838 2939 2938
8 3059 3060 3213 3212 2838 2839 2940 2939
8 3060 2893 3013 3213 2839 2828 2840 2940
8 2968 3211 3214 2969 2849 2938 2941 2848
8 3211 3212 3215 3214 2938 2939 2942 2941
8 3212 3213 3216 3215 2939 2940 2943 2942
8 3213 3013 3014 3216 2940 2840 2841 2943
8 2969 3214 3217 2970 2848 2941 2944 2847
8 3214 3215 3218 3217 2941 2942 2945 2944
8 3215 3216 3219 3218 2942 2943 2946 2945
8 3216 3014 3015 3219 2943 2841 2842 2946
8 2970 3217 3220 2971 2847 2944 2947 2846
8 3217 3218 3221 3220 2944 2945 2948 2947
8 3218 3219 3222 3221 2945 2946 2949 2948
8 3219 3015 3016 3222 2946 2842 2843 2949
8 2971 3220 3223 2972 2846 2947 2950 2845
8 3220 3221 3224 3223 2947 2948 2951 2950
8 3221 3222 3225 3224 2948 2949 2952 2951
8 3222 3016 3017 3225 2949 2843 2844 2952
8 2972 3223 3085 2866 2845 2950 225 21
8 3223 3224 3086 3085 2950 2951 224 225
8 3224 3225 3087 3086 2951 2952 223 224
8 3225 3017 2892 3087 2952 2844 20 223
8 2882 3061 3226 2973 2883 3058 3211 2968
8 3061 3062 3227 3226 3058 3059 3212 3211
8 3062 3063 3228 3227 3059 3060 3213 3212
8 3063 2894 3018 3228 3060 2893 3013 3213
8 2973 3226 3229 2974 2968 3211 3214 2969
8 3226 3227 3230 3229 3211 3212 3215 3214
8 3227 3228 3231 3230 3212 3213 3216 3215
8 3228 3018 3019 3231 3213 3013 3014 3216
8 2974 3229 3232 2975 2969 3214 3217 2970
8 3229 3230 3233 3232 3214 3215 3218 3217
8 3230 3231 3234 3233 3215 3216 3219 3218
8 3231 3019 3020 3234 3216 3014 3015 3219
8 2975 3232 3235 2976 2970 3217 3220 2971
8 3232 3233 3236 3235 3217 3218 3221 3220
8 3233 3234 3237 3236 3218 3219 3222 3221
8 3234 3020 3021 3237 3219 3015 3016 3222
8 2976 3235 3238 2977 2971 3220 3223 2972
8 3235 3236 3239 3238 3220 3221 3224 3223
8 3236 3237 3240 3239 3221 3222 3225 3224
8 3237 3021 3022 3240 3222 3016 3017 3225
8 2977 3238 3088 2867 2972 3223 3085 2866
8 3238 3239 3089 3088 3223 3224 3086 3085
8 3239 3240 3090 3089 3224 3225 3087 3086
8 3240 3022 2891 3090 3225 3017 2892 3087
8 2881 3064 3241 2978 2882 3061 3226 2973
8 3064 3065 3242 3241 3061 3062 3227 3226
8 3065 3066 3243 3242 3062 3063 3228 3227
8 3066 2895 3023 3243 3063 2894 3018 3228
8 2978 3241 3244 2979 2973 3226 3229 2974
8 3241 3242 3245 3244 3226 3227 3230 3229
8 3242 3243 3246 3245 3227 3228 3231 3230
8 3243 3023 3024 3246 3228 3018 3019 3231
8 2979 3244 3247 2980 2974 3229 3232 2975
8 3244 3245 3248 3247 3229 3230 3233 3232
8 3245 3246 3249 3248 3230 3231 3234 3233
8 3246 3024 3025 3249 3231 3019 3020 3234
8 2980 3247 3250 2981 2975 3232 3235 2976
8 3247 3248 3251 3250 3232 3233 3236 3235
8 3248 3249 3252 3251 3233 3234 3237 3236
8 3249 3025 3026 3252 3234 3020 3021 3237
8 2981 3250 3253 2982 2976 3235 3238 2977
8 3250 3251 3254 3253 3235 3236 3239 3238
8 3251 3252 3255 3254 3236 3237 3240 3239
8 3252 3026 3027 3255 3237 3021 3022 3240
8 2982 3253 3091 2868 2977 3238 3088 2867
8 3253 3254 3092 3091 3238 3239 3089 3088
8 3254 3255 3093 3092 3239 3240 3090 3089
8 3255 3027 2890 3093 3240 3022 2891 3090
8 2880 3067 3256 2983 2881 3064 3241 2978
8 3067 3068 3257 3256 3064 3065 3242 3241
8 3068 3069 3258 3257 3065 3066 3243 3242
8 3069 2896 3028 3258 3066 2895 3023 3243
8 2983 3256 3259 2984 2978 3241 3244 2979
8 3256 3257 3260 3259 3241 3242 3245 3244
8 3257 3258 3261 3260 3242 3243 3246 3245
8 3258 3028 3029 3261 3243 3023 3024 3246
8 2984 3259 3262 2985 2979 3244 3247 2980
8 3259 3260 3263 3262 3244 3245 3248 3247
8 3260 3261 3264 3263 3245 3246 3249 3248
8 3261 3029 3030 3264 3246 3024 3025 3249
8 2985 3262 3265 2986 2980 3247 3250 2981
8 3262 3263 3266 3265 3247 3248 3251 3250
8 3263 3264 3267 3266 3248 3249 3252 3251
8 3264 3030 3031 3267 3249 3025 3026 3252
8 2986 3265 3268 2987 2981 3250 3253 2982
8 3265 3266 3269 3268 3250 3251 3254 3253
8 3266 3267 3270 3269 3251 3252 3255 3254
8 3267 3031 3032 3270 3252 3026 3027 3255
8 2987 3268 3094 2869 2982 3253 3091 2868
8 3268 3269 3095 3094 3253 3254 3092 3091
8 3269 3270 3096 3095 3254 3255 3093 3092
8 3270 3032 2889 3096 3255 3027 2890 3093
8 2879 3070 3271 2988 2880 3067 3256 2983
8 3070 3071 3272 3271 3067 3068 3257 3256
8 3071 3072 3273 3272 3068 3069 3258 3257
8 3072 2897 3033 3273 3069 2896 3028 3258
8 2988 3271 3274 2989 2983 3256 3259 2984
8 3271 3272 3275 3274 3256 3257 3260 3259
8 3272 3273 3276 3275 3257 3258 3261 3260
8 3273 3033 3034 3276 3258 3028 3029 3261
8 2989 3274 3277 2990 2984 3259 3262 2985
8 3274 3275 3278 3277 3259 3260 3263 3262
8 3275 3276 3279 3278 3260 3261 3264 3263
8 3276 3034 3035 3279 3261 3029 3030 3264
8 2990 3277 3280 2991 2985 3262 3265 2986
8 3277 3278 3281 3280 3262 3263 3266 3265
8 3278 3279 3282 3281 3263 3264 3267 3266
8 3279 3035 3036 3282 3264 3030 3031 3267
8 2991 3280 3283 2992 2986 3265 3268 2987
8 3280 3281 3284 3283 3265 3266 3269 3268
8 3281 3282 3285 3284 3266 3267 3270 3269
8 3282 3036 3037 3285 3267 3031 3032 3270
8 2992 3283 3097 2870 2987 3268 3094 2869
8 3283 3284 3098 3097 3268 3269 3095 3094
8 3284 3285 3099 3098 3269 3270 3096 3095
8 3285 3037 2888 3099 3270 3032 2889 3096
8 2878 3073 3286 2993 2879 3070 3271 2988
8 3073 3074 3287 3286 3070 3071 3272 3271
8 3074 3075 3288 3287 3071 3072 3273 3272
8 3075 2898 3038 3288 3072 2897 3033 3273
8 2993 3286 3289 2994 2988 3271 3274 2989
8 3286 3287 3290 3289 3271 3272 3275 3274
8 3287 3288 3291 3290 3272 3273 3276 3275
8 3288 3038 3039 3291 3273 3033 3034 3276
8 2994 3289 3292 2995 2989 3274 3277 2990
8 3289 3290 3293 3292 3274 3275 3278 3277
8 3290 3291 3294 3293 3275 3276 3279 3278
8 3291 3039 3040 3294 3276 3034 3035 3279
8 2995 3292 3295 2996 2990 3277 3280 2991
8 3292 3293 3296 3295 3277 3278 3281 3280
8 3293 3294 3297 3296 3278 3279 3282 3281
8 3294 3040 3041 3297 3279 3035 3036 3282
8 2996 3295 3298 2997 2991 3280 3283 2992
8 3295 3296 3299 3298 3280 3281 3284 3283
8 3296 3297 3300 3299 3281 3282 3285 3284
8 3297 3041 3042 3300 3282 3036 3037 3285
8 2997 3298 3100 2871 2992 3283 3097 2870
8 3298 3299 3101 3100 3283 3284 3098 3097
8 3299 3300 3102 3101 3284 3285 3099 3098
8 3300 3042 2887 3102 3285 3037 2888 3099
8 2877 3076 3301 2998 2878 3073 3286 2993
8 3076 3077 3302 3301 3073 3074 3287 3286
8 3077 3078 3303 3302 3074 3075 3288 3287
8 3078 2899 3043 3303 3075 2898 3038 3288
8 2998 3301 3304 2999 2993 3286 3289 2994
8 3301 3302 3305 3304 3286 3287 3290 3289
8 3302 3303 3306 3305 3287 3288 3291 3290
8 3303 3043 3044 3306 3288 3038 3039 3291
8 2999 3304 3307 3000 2994 3289 3292 2995
8 3304 3305 3308 3307 3289 3290 3293 3292
8 3305 3306 3309 3308 3290 3291 3294 3293
8 3306 3044 3045 3309 3291 3039 3040 3294
8 3000 3307 3310 3001 2995 3292 3295 2996
8 3307 3308 3311 3310 3292 3293 3296 3295
8 3308 3309 3312 3311 3293 3294 3297 3296
8 3309 3045 3046 3312 3294 3040 3041 3297
8 3001 3310 3313 3002 2996 3295 3298 2997
8 3310 3311 3314 3313 3295 3296 3299 3298
8 3311 3312 3315 3314 3296 3297 3300 3299
8 3312 3046 3047 3315 3297 3041 3042 3300
8 3002 3313 3103 2872 2997 3298 3100 2871
8 3313 3314 3104 3103 3298 3299 3101 3100
8 3314 3315 3105 3104 3299 3300 3102 3101
8 3315 3047 2886 3105 3300 3042 2887 3102
8 2876 3079 3316 3003 2877 3076 3301 2998
8 3079 3080 3317 3316 3076 3077 3302 3301
8 3080 3081 3318 3317 3077 3078 3303 3302
8 3081 2900 3048 3318 3078 2899 3043 3303
8 3003 3316 3319 3004 2998 3301 3304 2999
8 3316 3317 3320 3319 3301 3302 3305 3304
8 3317 3318 3321 3320 3302 3303 3306 3305
8 3318 3048 3049 3321 3303 3043 3044 3306
8 3004 3319 3322 3005 2999 3304 3307 3000
8 3319 3320 3323 3322 3304 3305 3308 3307
8 3320 3321 3324 3323 3305 3306 3309 3308
8 3321 3049 3050 3324 3306 3044 3045 3309
8 3005 3322 3325 3006 3000 3307 3310 3001
8 3322 3323 3326 3325 3307 3308 3311 3310
8 3323 3324 3327 3326 3308 3309 3312 3311
8 3324 3050 3051 3327 3309 3045 3046 3312
8 3006 3325 3328 3007 3001 3310 3313 3002
8 3325 3326 3329 3328 3310 3311 3314 3313
8 3326 3327 3330 3329 3311 3312 3315 3314
8 3327 3051 3052 3330 3312 3046 3047 3315
8 3007 3328 3106 2873 3002 3313 3103 2872
8 3328 3329 3107 3106 3313 3314 3104 3103
8 3329 3330 3108 3107 3314 3315 3105 3104
8 3330 3052 2885 3108 3315 3047 2886 3105
8 2875 3082 3331 3008 2876 3079 3316 3003
8 3082 3083 3332 3331 3079 3080 3317 3316
8 3083 3084 3333 3332 3080 3081 3318 3317
8 3084 2901 3053 3333 3081 2900 3048 3318
8 3008 3331 3334 3009 3003 3316 3319 3004
8 3331 3332 3335 3334 3316 3317 3320 3319
8 3332 3333 3336 3335 3317 3318 3321 3320
8 3333 3053 3054 3336 3318 3048 3049 3321
8 3009 3334 3337 3010 3004 3319 3322 3005
8 3334 3335 3338 3337 3319 3320 3323 3322
8 3335 3336 3339 3338 3320 3321 3324 3323
8 3336 3054 3055 3339 3321 3049 3050 3324
8 3010 3337 3340 3011 3005 3322 3325 3006
8 3337 3338 3341 3340 3322 3323 3326 3325
8 3338 3339 3342 3341 3323 3324 3327 3326
8 3339 3055 3056 3342 3324 3050 3051 3327
8 3011 3340 3343 3012 3006 3325 3328 3007
8 3340 3341 3344 3343 3325 3326 3329 3328
8 3341 3342 3345 3344 3326 3327 3330 3329
8 3342 3056 3057 3345 3327 3051 3052 3330
8 3012 3343 3109 2874 3007 3328 3106 2873
8 3343 3344 3110 3109 3328 3329 3107 3106
8 3344 3345 3111 3110 3329 3330 3108 3107
8 3345 3057 2884 3111 3330 3052 2885 3108
8 2832 2852 2953 2861 2875 3082 3331 3008
8 2852 2851 2954 2953 3082 3083 3332 3331
8 2851 2850 2955 2954 3083 3084 3333 3332
8 2850 2829 2857 2955 3084 2901 3053 3333
8 2861 2953 2956 2862 3008 3331 3334 3009
8 2953 2954 2957 2956 3331 3332 3335 3334
8 2954 2955 2958 2957 3332 3333 3336 3335
8 2955 2857 2856 2958 3333 3053 3054 3336
8 2862 2956 2959 2863 3009 3334 3337 3010
8 2956 2957 2960 2959 3334 3335 3338 3337
8 2957 2958 2961 2960 3335 3336 3339 3338
8 2958 2856 2855 2961 3336 3054 3055 3339
8 2863 2959 2962 2864 3010 3337 3340 3011
8 2959 2960 2963 2962 3337 3338 3341 3340
8 2960 2961 2964 2963 3338 3339 3342 3341
8 2961 2855 2854 2964 3339 3055 3056 3342
8 2864 2962 2965 2865 3011 3340 3343 3012
8 2962 2963 2966 2965 3340 3341 3344 3343
8 2963 2964 2967 2966 3341 3342 3345 3344
8 2964 2854 2853 2967 3342 3056 3057 3345
8 2865 2965 2858 2831 3012 3343 3109 2874
8 2965 2966 2859 2858 3343 3344 3110 3109
8 2966 2967 2860 2859 3344 3345 3111 3110
8 2967 2853 2830 2860 3345 3057 2884 3111
8 2893 3060 3346 3130 2828 2839 3112 2910
8 3060 3059 3347 3346 2839 2838 3113 3112
8 3059 3058 3348 3347 2838 2837 3114 3113
8 3058 2883 3157 3348 2837 2827 2902 3114
8 3130 3346 3349 3131 2910 3112 3115 2909
8 3346 3347 3350 3349 3112 3113 3116 3115
8 3347 3348 3351 3350 3113 3114 3117 3116
8 3348 3157 3158 3351 3114 2902 2903 3117
8 3131 3349 3352 3132 2909 3115 3118 2908
8 3349 3350 3353 3352 3115 3116 3119 3118
8 3350 3351 3354 3353 3116 3117 3120 3119
8 3351 3158 3159 3354 3117 2903 2904 3120
8 3132 3352 3184 2920 2908 3118 2907 2834
8 3352 3353 3185 3184 3118 3119 2906 2907
8 3353 3354 3186 3185 3119 3120 2905 2906
8 3354 3159 2937 3186 3120 2904 2833 2905
8 2894 3063 3355 3133 2893 3060 3346 3130
8 3063 3062 3356 3355 3060 3059 3347 3346
8 3062 3061 3357 3356 3059 3058 3348 3347
8 3061 2882 3160 3357 3058 2883 3157 3348
8 3133 3355 3358 3134 3130 3346 3349 3131
8 3355 3356 3359 3358 3346 3347 3350 3349
8 3356 3357 3360 3359 3347 3348 3351 3350
8 3357 3160 3161 3360 3348 3157 3158 3351
8 3134 3358 3361 3135 3131 3349 3352 3132
8 3358 3359 3362 3361 3349 3350 3353 3352
8 3359 3360 3363 3362 3350 3351 3354 3353
8 3360 3161 3162 3363 3351 3158 3159 3354
8 3135 3361 3187 2921 3132 3352 3184 2920
8 3361 3362 3188 3187 3352 3353 3185 3184
8 3362 3363 3189 3188 3353 3354 3186 3185
8 3363 3162 2936 3189 3354 3159 2937 3186
8 2895 3066 3364 3136 2894 3063 3355 3133
8 3066 3065 3365 3364 3063 3062 3356 3355
8 3065 3064 3366 3365 3062 3061 3357 3356
8 3064 2881 3163 3366 3061 2882 3160 3357
8 3136 3364 3367 3137 3133 3355 3358 3134
8 3364 3365 3368 3367 3355 3356 3359 3358
8 3365 3366 3369 3368 3356 3357 3360 3359
8 3366 3163 3164 3369 3357 3160 3161 3360
8 3137 3367 3370 3138 3134 3358 3361 3135
8 3367 3368 3371 3370 3358 3359 3362 3361
8 3368 3369 3372 3371 3359 3360 3363 3362
8 3369 3164 3165 3372 3360 3161 3162 3363
8 3138 3370 3190 2922 3135 3361 3187 2921
8 3370 3371 3191 3190 3361 3362 3188 3187
8 3371 3372 3192 3191 3362 3363 3189 3188
8 3372 3165 2935 3192 3363 3162 2936 3189
8 2896 3069 3373 3139 2895 3066 3364 3136
8 3069 3068 3374 3373 3066 3065 3365 3364
8 3068 3067 3375 3374 3065 3064 3366 3365
8 3067 2880 3166 3375 3064 2881 3163 3366
8 3139 3373 3376 3140 3136 3364 3367 3137
8 3373 3374 3377 3376 3364 3365 3368 3367
8 3374 3375 3378 3377 3365 3366 3369 3368
8 3375 3166 3167 3378 3366 3163 3164 3369
8 3140 3376 3379 3141 3137 3367 3370 3138
8 3376 3377 3380 3379 3367 3368 3371 3370
8 3377 3378 3381 3380 3368 3369 3372 3371
8 3378 3167 3168 3381 3369 3164 3165 3372
8 3141 3379 3193 2923 3138 3370 3190 2922
8 3379 3380 3194 3193 3370 3371 3191 3190
8 3380 3381 3195 3194 3371 3372 3192 3191
8 3381 3168 2934 3195 3372 3165 2935 3192
8 2897 3072 3382 3142 2896 3069 3373 3139
8 3072 3071 3383 3382 3069 3068 3374 3373
8 3071 3070 3384 3383 3068 3067 3375 3374
8 3070 2879 3169 3384 3067 2880 3166 3375
8 3142 3382 3385 3143 3139 3373 3376 3140
8 3382 3383 3386 3385 3373 3374 3377 3376
8 3383 3384 3387 3386 3374 3375 3378 3377
8 3384 3169 3170 3387 3375 3166 3167 3378
8 3143 3385 3388 3144 3140 3376 3379 3141
8 3385 3386 3389 3388 3376 3377 3380 3379
8 3386 3387 3390 3389 3377 3378 3381 3380
8 3387 3170 3171 3390 3378 3167 3168 3381
8 3144 3388 3196 2924 3141 3379 3193 2923
8 3388 3389 3197 3196 3379 3380 3194 3193
8 3389 3390 3198 3197 3380 3381 3195 3194
8 3390 3171 2933 3198 3381 3168 2934 3195
8 2898 3075 3391 3145 2897 3072 3382 3142
8 3075 3074 3392 3391 3072 3071 3383 3382
8 3074 3073 3393 3392 3071 3070 3384 3383
8 3073 2878 3172 3393 3070 2879 3169 3384
8 3145 3391 3394 3146 3142 3382 3385 3143
8 3391 3392 3395 3394 3382 3383 3386 3385
8 3392 3393 3396 3395 3383 3384 3387 3386
8 3393 3172 3173 3396 3384 3169 3170 3387
8 3146 3394 3397 3147 3143 3385 3388 3144
8 3394 3395 3398 3397 3385 3386 3389 3388
8 3395 3396 3399 3398 3386 3387 3390 3389
8 3396 3173 3174 3399 3387 3170 3171 3390
8 3147 3397 3199 2925 3144 3388 3196 2924
8 3397 3398 3200 3199 3388 3389 3197 3196
8 3398 3399 3201 3200 3389 3390 3198 3197
8 3399 3174 2932 3201 3390 3171 2933 3198
8 2899 3078 3400 3148 2898 3075 3391 3145
8 3078 3077 3401 3400 3075 3074 3392 3391
8 3077 3076 3402 3401 3074 3073 3393 3392
8 3076 2877 3175 3402 3073 2878 3172 3393
8 3148 3400 3403 3149 3145 3391 3394 3146
8 3400 3401 3404 3403 3391 3392 3395 3394
8 3401 3402 3405 3404 3392 3393 3396 3395
8 3402 3175 3176 3405 3393 3172 3173 3396
8 3149 3403 3406 3150 3146 3394 3397 3147
8 3403 3404 3407 3406 3394 3395 3398 3397
8 3404 3405 3408 3407 3395 3396 3399 3398
8 3405 3176 3177 3408 3396 3173 3174 3399
8 3150 3406 3202 2926 3147 3397 3199 2925
8 3406 3407 3203 3202 3397 3398 3200 3199
8 3407 3408 3204 3203 3398 3399 3201 3200
8 3408 3177 2931 3204 3399 3174 2932 3201
8 2900 3081 3409 3151 2899 3078 3400 3148
8 3081 3080 3410 3409 3078 3077 3401 3400
8 3080 3079 3411 3410 3077 3076 3402 3401
8 3079 2876 3178 3411 3076 2877 3175 3402
8 3151 3409 3412 3152 3148 3400 3403 3149
8 3409 3410 3413 3412 3400 3401 3404 3403
8 3410 3411 3414 3413 3401 3402 3405 3404
8 3411 3178 3179 3414 3402 3175 3176 3405
8 3152 3412 3415 3153 3149 3403 3406 3150
8 3412 3413 3416 3415 3403 3404 3407 3406
8 3413 3414 3417 3416 3404 3405 3408 3407
8 3414 3179 3180 3417 3405 3176 3177 3408
8 3153 3415 3205 2927 3150 3406 3202 2926
8 3415 3416 3206 3205 3406 3407 3203 3202
8 3416 3417 3207 3206 3407 3408 3204 3203
8 3417 3180 2930 3207 3408 3177 2931 3204
8 2901 3084 3418 3154 2900 3081 3409 3151
8 3084 3083 3419 3418 3081 3080 3410 3409
8 3083 3082 3420 3419 3080 3079 3411 3410
8 3082 2875 3181 3420 3079 2876 3178 3411
8 3154 3418 3421 3155 3151 3409 3412 3152
8 3418 3419 3422 3421 3409 3410 3413 3412
8 3419 3420 3423 3422 3410 3411 3414 3413
8 3420 3181 3182 3423 3411 3178 3179 3414
8 3155 3421 3424 3156 3152 3412 3415 3153
8 3421 3422 3425 3424 3412 3413 3416 3415
8 3422 3423 3426 3425 3413 3414 3417 3416
8 3423 3182 3183 3426 3414 3179 3180 3417
8 3156 3424 3208 2928 3153 3415 3205 2927
8 3424 3425 3209 3208 3415 3416 3206 3205
8 3425 3426 3210 3209 3416 3417 3207 3206
8 3426 3183 2929 3210 3417 3180 2930 3207
8 2829 2850 3121 2917 2901 3084 3418 3154
8 2850 2851 3122 3121 3084 3083 3419 3418
8 2851 2852 3123 3122 3083 3082 3420 3419
8 2852 2832 2913 3123 3082 2875 3181 3420
8 2917 3121 3124 2918 3154 3418 3421 3155
8 3121 3122 3125 3124 3418 3419 3422 3421
8 3122 3123 3126 3125 3419 3420 3423 3422
8 3123 2913 2912 3126 3420 3181 3182 3423
8 2918 3124 3127 2919 3155 3421 3424 3156
8 3124 3125 3128 3127 3421 3422 3425 3424
8 3125 3126 3129 3128 3422 3423 3426 3425
8 3126 2912 2911 3129 3423 3182 3183 3426
8 2919 3127 2914 2836 3156 3424 3208 2928
8 3127 3128 2915 2914 3424 3425 3209 3208
8 3128 3129 2916 2915 3425 3426 3210 3209
8 3129 2911 2835 2916 3426 3183 2929 3210
2 11 4091
2 10 4095
2 7 4099
2 6 4103
2 13 4092
2 12 4096
2 5 4100
2 4 4104
2 15 4093
2 14 4097
2 3 4101
2 2 4105
2 17 4094
2 16 1370
2 0 512
2 1 4106
2 19 512
2 18 4098
2 20 4102
2 21 1370
CELL_TYPES 2180
9
9
9
9
9
9
9
9
9
9
9
9
9
9
9
9
9
9
9
9
9
9
9
9
9
9
9
9
9
9
9
9
9
9
9
9
9
9
9
9
9
9
9
9
9
9
9
9
9
9
9
9
9
9
9
9
9
9
9
9
9
9
9
9
9
9
9
9
9
9
9
9
9
9
9
9
9
9
9
9
9
9
9
9
9
9
9
9
9
9
9
9
9
9
9
9
9
9
9
9
9
9
9
9
9
9
9
9
9
9
9
9
9
9
9
9
9
9
9
9
9
9
9
9
9
9
9
9
9
9
9
9
9
9
9
9
9
9
9
9
9
9
9
9
9
9
9
9
9
9
9
9
9
9
9
9
9
9
9
9
9
9
9
9
9
9
9
9
9
9
9
9
9
9
9
9
9
9
9
9
9
9
9
9
9
9
9
9
9
9
9
9
9
9
9
9
9
9
9
9
9
9
9
9
9
9
9
9
9
9
9
9
9
9
9
9
9
9
9
9
9
9
9
9
9
9
9
9
9
9
9
9
9
9
9
9
9
9
9
9
9
9
9
9
9
9
9
9
9
9
9
9
9
9
9
9
9
9
9
9
9
9
9
9
9
9
9
9
9
9
9
9
9
9
9
9
9
9
9
9
9
9
9
9
9
9
9
9
9
9
9
9
9
9
9
9
9
9
9
9
9
9
9
9
9
9
9
9
9
9
9
9
9
9
9
9
9
9
9
9
9
9
9
9
9
9
9
9
9
9
9
9
9
9
9
9
9
9
9
9
9
9
9
9
9
9
9
9
9
9
9
9
9
9
9
9
9
9
9
9
9
9
9
9
9
9
9
9
9
9
9
9
9
9
9
9
9
9
9
9
9
9
9
9
9
9
9
9
9
9
9
9
9
9
9
9
9
9
9
9
12
12
12
12
12
12
12
12
12
12
12
12
12
12
12
12
12
12
12
12
12
12
12
12
12
12
12
12
12
12
12
12
12
12
12
12
12
12
12
12
12
12
12
12
12
12
12
12
12
12
12
12
12
12
12
12
12
12
12
12
12
12
12
12
12
12
12
12
12
12
12
12
12
12
12
12
12
12
12
12
12
12
12
12
12
12
12
12
12
12
12
12
12
12
12
12
12
12
12
12
12
12
12
12
12
12
12
12
12
12
12
12
12
12
12
12
12
12
12
12
12
12
12
12
12
12
12
12
12
12
12
12
12
12
12
12
12
12
12
12
12
12
12
12
12
12
12
12
12
12
12
12
12
12
12
12
12
12
12
12
12
12
12
12
12
12
12
12
12
12
12
12
12
12
12
12
12
12
12
12
12
12
12
12
12
12
12
12
12
12
12
12
12
12
12
12
12
12
12
12
12
12
12
12
12
12
12
12
12
12
12
12
12
12
12
12
12
12
12
12
12
12
12
12
12
12
12
12
12
12
12
12
12
12
12
12
12
12
12
12
12
12
12
12
12
12
12
12
12
12
12
12
12
12
12
12
12
12
12
12
12
12
12
12
12
12
12
12
12
12
12
12
12
12
12
12
12
12
12
12
12
12
12
12
12
12
12
12
12
12
12
12
12
12
12
12
12
12
12
12
12
12
12
12
12
12
12
12
12
12
12
12
12
12
12
12
12
12
12
12
12
12
12
12
12
12
12
12
12
12
12
12
12
12
12
12
12
12
12
12
12
12
12
12
12
12
12
12
12
12
12
12
12
12
12
12
12
12
12
12
12
12
12
12
12
12
12
12
12
12
12
12
12
12
12
12
12
12
12
12
12
12
12
12
12
12
12
12
12
12
12
12
12
12
12
12
12
12
12
12
12
12
12
12
12
12
12
12
12
12
12
12
12
12
12
12
12
12
12
12
12
12
12
12
12
12
12
12
12
12
12
12
12
12
12
12
12
12
12
12
12
12
12
12
12
12
12
12
12
12
12
12
12
12
12
12
12
12
12
12
12
12
12
12
12
12
12
12
12
12
12
12
12
12
12
12
12
12
12
12
12
12
12
12
12
12
12
12
12
12
12
12
12
12
12
12
12
12
12
12
12
12
12
12
12
12
12
12
12
12
12
12
12
12
12
12
12
12
12
12
12
12
12
12
12
12
12
12
12
12
12
12
12
12
12
12
12
12
12
12
12
12
12
12
12
12
12
12
12
12
12
12
12
12
12
12
12
12
12
12
12
12
12
12
12
12
12
12
12
12
12
12
12
12
12
12
12
12
12
12
12
12
12
12
12
12
12
12
12
12
12
12
12
12
12
12
12
12
12
12
12
12
12
12
12
12
12
12
12
12
12
12
12
12
12
12
12
12
12
12
12
12
12
12
12
12
12
12
12
12
12
12
12
12
12
12
12
12
12
12
12
12
12
12
12
12
12
12
12
12
12
12
12
12
12
12
12
12
12
12
12
12
12
12
12
12
12
12
12
12
12
12
12
12
12
12
12
12
12
12
12
12
12
12
12
12
12
12
12
12
12
12
12
12
12
12
12
12
12
12
12
12
12
12
12
12
12
12
12
12
12
12
12
12
12
12
12
12
12
12
12
12
12
12
12
12
12
12
12
12
12
12
12
12
12
12
12
12
12
12
12
12
12
12
12
12
12
12
12
12
12
12
12
12
12
12
12
12
12
12
12
12
12
12
12
12
12
12
12
12
12
12
12
12
12
12
12
12
12
12
12
12
12
12
12
12
12
12
12
12
12
12
12
12
12
12
12
12
12
12
12
12
12
12
12
12
12
12
12
12
12
12
12
12
12
12
12
12
12
12
12
12
12
12
12
12
12
12
12
12
12
12
12
12
12
12
12
12
12
12
12
12
12
12
12
12
12
12
12
12
12
12
12
12
12
12
12
12
12
12
12
12
12
12
12
12
12
12
12
12
12
12
12
12
12
12
12
12
12
12
12
12
12
12
12
12
12
12
12
12
12
12
12
12
12
12
12
12
12
12
12
12
12
12
12
12
12
12
12
12
12
12
12
12
12
12
12
12
12
12
12
12
12
12
12
12
12
12
12
12
12
12
12
12
12
12
12
12
12
12
12
12
12
12
12
12
12
12
12
12
12
12
12
12
12
12
12
12
12
12
12
12
12
12
12
12
12
12
12
12
12
12
12
12
12
12
12
12
12
12
12
12
12
12
12
12
12
12
12
12
12
12
12
12
12
12
12
12
12
12
12
12
12
12
12
12
12
12
12
12
12
12
12
12
12
12
12
12
12
12
12
12
12
12
12
12
12
12
12
12
12
12
12
12
12
12
12
12
12
12
12
12
12
12
12
12
12
12
12
12
12
12
12
12
12
12
12
12
12
12
12
12
12
12
12
12
12
12
12
12
12
12
12
12
12
12
12
12
12
12
12
12
12
12
12
12
12
12
12
12
12
12
12
12
12
12
12
12
12
12
12
12
12
12
12
12
12
12
12
12
12
12
12
12
12
12
12
12
12
12
12
12
12
12
12
12
12
12
12
12
12
12
12
12
12
12
12
12
12
12
12
12
12
12
12
12
12
12
12
12
12
12
12
12
12
12
12
12
12
12
12
12
12
12
12
12
12
12
12
12
12
12
12
12
12
12
12
12
12
12
12
12
12
12
12
12
12
12
12
12
12
12
12
12
12
12
12
12
12
12
12
12
12
12
12
12
12
12
12
12
12
12
12
12
12
12
12
12
12
12
12
12
12
12
12
12
12
12
12
12
12
12
12
12
12
12
12
12
12
12
12
12
12
12
12
12
12
12
12
12
12
12
12
12
12
12
12
12
12
12
12
12
12
12
12
12
12
12
12
12
12
12
12
12
12
12
12
12
12
12
12
12
12
12
12
12
12
12
12
12
12
12
12
12
12
12
12
12
12
12
12
12
12
12
12
12
12
12
12
12
12
12
12
12
12
12
12
12
12
12
12
12
12
12
12
12
12
12
12
12
12
12
12
12
12
12
12
12
12
12
12
12
12
12
12
12
12
12
12
12
12
12
12
12
12
12
12
12
12
12
12
12
12
12
12
12
12
12
12
12
12
12
12
12
12
12
12
12
12
12
12
12
12
12
12
12
12
12
12
12
12
12
12
12
12
12
12
12
12
12
12
12
12
12
12
12
12
12
12
12
12
12
12
12
12
12
12
12
12
12
12
12
12
12
12
12
12
12
12
12
12
12
12
12
12
12
12
12
12
12
12
12
12
12
12
12
12
12
12
12
12
12
12
12
12
12
12
12
12
12
12
12
12
12
12
12
12
12
12
12
12
12
12
12
12
12
12
12
12
12
12
12
12
12
12
12
12
12
12
12
12
12
12
12
12
12
12
12
12
12
12
12
12
12
12
12
12
12
12
12
12
12
12
12
12
12
12
12
12
12
12
12
12
12
12
12
12
12
12
12
12
12
12
12
12
12
12
12
12
12
12
12
12
12
12
12
12
12
12
12
12
12
12
12
12
12
12
12
12
12
12
12
12
12
12
12
12
12
12
12
12
12
12
12
12
12
12
12
12
12
12
12
12
12
12
12
12
12
12
12
12
12
12
12
12
12
12
12
12
12
12
12
12
12
12
12
12
12
12
12
12
12
12
12
12
12
12
12
12
12
12
12
12
12
12
12
12
12
12
12
12
12
12
12
12
12
12
12
12
12
12
12
12
12
12
12
12
12
12
12
12
12
12
12
12
12
12
12
12
12
12
12
12
12
12
12
12
12
12
12
12
12
12
12
12
12
12
12
12
12
12
12
12
12
12
12
12
12
12
12
12
12
12
12
12
12
12
12
12
12
12
12
12
12
12
12
12
12
12
12
12
12
12
12
12
12
12
12
12
12
12
12
12
12
12
12
12
12
12
12
12
12
12
12
12
12
12
12
12
12
12
12
12
12
12
12
12
12
12
12
12
12
12
12
12
12
12
12
12
12
3
3
3
3
3
3
3
3
3
3
3
3
3
3
3
3
3
3
3
3
POINT_DATA 4107
VECTORS Displacement float
nan nan nan
nan nan nan
nan nan nan
nan nan nan
nan nan nan
nan nan nan
nan nan nan
nan nan nan
nan nan nan
nan nan nan
nan nan nan
nan nan nan
nan nan nan
nan nan nan
nan nan nan
nan nan nan
nan nan nan
nan nan nan
nan nan nan
nan nan nan
nan nan nan
nan nan nan
0 0 nan
0 0 nan
0 0 nan
0 0 nan
0 0 nan
0 0 nan
0 0 nan
0 0 nan
0 0 nan
0 0 nan
0 0 nan
0 0 nan
0 0 nan
0 0 nan
0 0 nan
0 0 nan
0 0 nan
0 0 nan
0 0 nan
0 0 nan
0 0 nan
0 0 nan
0 0 nan
0 0 nan
0 0 nan
0 0 nan
0 0 nan
0 0 nan
0 0 nan
0 0 nan
0 0 nan
0 0 nan
0 0 nan
0 0 nan
0 0 nan
0 0 nan
0 0 nan
0 0 nan
0 0 nan
0 0 nan
0 0 nan
0 0 nan
0 0 nan
0 0 nan
0 0 nan
0 0 nan
0 0 nan
0 0 nan
0 0 nan
0 0 nan
0 0 nan
0 0 nan
0 0 nan
0 0 nan
0 0 nan
0 0 nan
0 0 nan
0 0 nan
0 0 nan
0 0 nan
0 0 nan
0 0 nan
0 0 nan
0 0 nan
0 0 nan
0 0 nan
0 0 nan
0 0 nan
0 0 nan
0 0 nan
0 0 nan
0 0 nan
0 0 nan
0 0 nan
0 0 nan
0 0 nan
0 0 nan
0 0 nan
0 0 nan
0 0 nan
0 0 nan
0 0 nan
0 0 nan
0 0 nan
0 0 nan
0 0 nan
0 0 nan
0 0 nan
0 0 nan
0 0 nan
0 0 nan
0 0 nan
0 0 nan
0 0 nan
0 0 nan
0 0 nan
0 0 nan
0 0 nan
0 0 nan
0 0 nan
0 0 nan
0 0 nan
0 0 nan
0 0 nan
0 0 nan
0 0 nan
0 0 nan
0 0 nan
0 0 nan
0 0 nan
0 0 nan
0 0 nan
0 0 nan
0 0 nan
0 0 nan
0 0 nan
0 0 nan
0 0 nan
0 0 nan
0 0 nan
0 0 nan
0 0 nan
0 0 nan
0 0 nan
0 0 nan
0 0 nan
0 0 nan
0 0 nan
0 0 nan
0 0 nan
0 0 nan
0 0 nan
0 0 nan
0 0 nan
0 0 nan
0 0 nan
0 0 nan
0 0 nan
0 0 nan
0 0 nan
0 0 nan
0 0 nan
0 0 nan
0 0 nan
0 0 nan
0 0 nan
0 0 nan
0 0 nan
0 0 nan
0 0 nan
0 0 nan
0 0 nan
0 0 nan
0 0 nan
0 0 nan
0 0 nan
0 0 nan
0 0 nan
0 0 nan
0 0 nan
0 0 nan
0 0 nan
0 0 nan
0 0 nan
0 0 nan
0 0 nan
0 0 nan
0 0 nan
0 0 nan
0 0 nan
0 0 nan
0 0 nan
0 0 nan
0 0 nan
0 0 nan
0 0 nan
0 0 nan
0 0 nan
0 0 nan
0 0 nan
nan nan nan
nan nan nan
nan nan nan
0 0 nan
0 0 nan
0 0 nan
0 0 nan
0 0 nan
0 0 nan
0 0 nan
0 0 nan
0 0 nan
0 0 nan
0 0 nan
0 0 nan
0 0 nan
0 0 nan
0 0 nan
0 0 nan
0 0 nan
0 0 nan
nan nan nan
nan nan nan
nan nan nan
0 0 nan
0 0 nan
0 0 nan
0 0 nan
0 0 nan
0 0 nan
0 0 nan
0 0 nan
0 0 nan
0 0 nan
0 0 nan
0 0 nan
0 0 nan
0 0 nan
0 0 nan
0 0 nan
0 0 nan
0 0 nan
0 0 nan
0 0 nan
0 0 nan
0 0 nan
0 0 nan
0 0 nan
0 0 nan
0 0 nan
0 0 nan
0 0 nan
0 0 nan
0 0 nan
0 0 nan
0 0 nan
0 0 nan
0 0 nan
0 0 nan
0 0 nan
0 0 nan
0 0 nan
0 0 nan
0 0 nan
0 0 nan
0 0 nan
0 0 nan
0 0 nan
0 0 nan
0 0 nan
0 0 nan
0 0 nan
0 0 nan
0 0 nan
0 0 nan
0 0 nan
0 0 nan
0 0 nan
0 0 nan
0 0 nan
0 0 nan
0 0 nan
0 0 nan
0 0 nan
0 0 nan
0 0 nan
0 0 nan
0 0 nan
0 0 nan
0 0 nan
0 0 nan
0 0 nan
0 0 nan
0 0 nan
0 0 nan
0 0 nan
0 0 nan
0 0 nan
0 0 nan
0 0 nan
0 0 nan
0 0 nan
0 0 nan
0 0 nan
0 0 nan
0 0 nan
0 0 nan
0 0 nan
0 0 nan
0 0 nan
0 0 nan
0 0 nan
0 0 nan
0 0 nan
0 0 nan
0 0 nan
0 0 nan
0 0 nan
0 0 nan
0 0 nan
0 0 nan
0 0 nan
0 0 nan
0 0 nan
0 0 nan
0 0 nan
0 0 nan
0 0 nan
0 0 nan
0 0 nan
0 0 nan
0 0 nan
0 0 nan
0 0 nan
0 0 nan
0 0 nan
0 0 nan
0 0 nan
0 0 nan
0 0 nan
0 0 nan
0 0 nan
0 0 nan
0 0 nan
0 0 nan
0 0 nan
0 0 nan
0 0 nan
0 0 nan
0 0 nan
0 0 nan
0 0 nan
0 0 nan
0 0 nan
0 0 nan
0 0 nan
0 0 nan
0 0 nan
0 0 nan
0 0 nan
0 0 nan
0 0 nan
0 0 nan
0 0 nan
0 0 nan
0 0 nan
0 0 nan
0 0 nan
0 0 nan
0 0 nan
0 0 nan
0 0 nan
0 0 nan
0 0 nan
0 0 nan
0 0 nan
0 0 nan
0 0 nan
0 0 nan
0 0 nan
0 0 nan
0 0 nan
0 0 nan
0 0 nan
0 0 nan
0 0 nan
0 0 nan
0 0 nan
0 0 nan
0 0 nan
0 0 nan
0 0 nan
0 0 nan
0 0 nan
0 0 nan
0 0 nan
0 0 nan
0 0 nan
0 0 nan
0 0 nan
0 0 nan
0 0 nan
0 0 nan
0 0 nan
0 0 nan
0 0 nan
0 0 nan
0 0 nan
0 0 nan
0 0 nan
0 0 nan
0 0 nan
0 0 nan
0 0 nan
0 0 nan
0 0 nan
0 0 nan
0 0 nan
0 0 nan
0 0 nan
0 0 nan
0 0 nan
0 0 nan
0 0 nan
0 0 nan
0 0 nan
0 0 nan
0 0 nan
0 0 nan
0 0 nan
0 0 nan
0 0 nan
0 0 nan
0 0 nan
0 0 nan
0 0 nan
0 0 nan
0 0 nan
0 0 nan
0 0 nan
0 0 nan
0 0 nan
0 0 nan
0 0 nan
0 0 nan
0 0 nan
0 0 nan
0 0 nan
0 0 nan
0 0 nan
0 0 nan
0 0 nan
0 0 nan
0 0 nan
0 0 nan
0 0 nan
0 0 nan
0 0 nan
0 0 nan
0 0 nan
0 0 nan
0 0 nan
0 0 nan
0 0 nan
0 0 nan
0 0 nan
0 0 nan
0 0 nan
0 0 nan
0 0 nan
0 0 nan
0 0 nan
0 0 nan
0 0 nan
0 0 nan
0 0 nan
0 0 nan
0 0 nan
0 0 nan
0 0 nan
0 0 nan
0 0 nan
0 0 nan
0 0 nan
0 0 nan
0 0 nan
0 0 nan
0 0 nan
0 0 nan
0 0 nan
0 0 nan
0 0 nan
0 0 nan
0 0 nan
0 0 nan
0 0 nan
0 0 nan
0 0 nan
0 0 nan
0 0 nan
0 0 nan
0 0 nan
0 0 nan
nan nan nan
nan nan nan
nan nan nan
nan nan nan
nan nan nan
nan nan nan
nan nan nan
nan nan nan
nan nan nan
nan nan nan
nan nan nan
nan nan nan
nan nan nan
nan nan nan
nan nan nan
nan nan nan
nan nan nan
nan nan nan
nan nan nan
nan nan nan
nan nan nan
nan nan nan
nan nan nan
nan nan nan
nan nan nan
nan nan nan
nan nan nan
nan nan nan
nan nan nan
nan nan nan
nan nan nan
nan nan nan
nan nan nan
nan nan nan
nan nan nan
nan nan nan
nan nan nan
nan nan nan
nan nan nan
nan nan nan
nan nan nan
nan nan nan
nan nan nan
nan nan nan
nan nan nan
nan nan nan
nan nan nan
nan nan nan
nan nan nan
nan nan nan
nan nan nan
nan nan nan
nan nan nan
nan nan nan
nan nan nan
nan nan nan
nan nan nan
nan nan nan
nan nan nan
nan nan nan
nan nan nan
nan nan nan
nan nan nan
nan nan nan
nan nan nan
nan nan nan
nan nan nan
nan nan nan
nan nan nan
nan nan nan
nan nan nan
nan nan nan
nan nan nan
nan nan nan
nan nan nan
nan nan nan
nan nan nan
nan nan nan
nan nan nan
nan nan nan
nan nan nan
nan nan nan
nan nan nan
nan nan nan
nan nan nan
nan nan nan
nan nan nan
nan nan nan
nan nan nan
nan nan nan
nan nan nan
nan nan nan
nan nan nan
nan nan nan
nan nan nan
nan nan nan
nan nan nan
nan nan nan
nan nan nan
nan nan nan
nan nan nan
nan nan nan
nan nan nan
nan nan nan
nan nan nan
nan nan nan
nan nan nan
nan nan nan
nan nan nan
nan nan nan
nan nan nan
nan nan nan
nan nan nan
nan nan nan
nan nan nan
nan nan nan
nan nan nan
nan nan nan
nan nan nan
nan nan nan
nan nan nan
nan nan nan
nan nan nan
nan nan nan
nan nan nan
nan nan nan
nan nan nan
nan nan nan
nan nan nan
nan nan nan
nan nan nan
nan nan nan
nan nan nan
nan nan nan
nan nan nan
nan nan nan
nan nan nan
nan nan nan
nan nan nan
nan nan nan
nan nan nan
nan nan nan
nan nan nan
nan nan nan
nan nan nan
nan nan nan
nan nan nan
nan nan nan
nan nan nan
nan nan nan
nan nan nan
nan nan nan
nan nan nan
nan nan nan
nan nan nan
nan nan nan
nan nan nan
nan nan nan
nan nan nan
nan nan nan
nan nan nan
nan nan nan
nan nan nan
nan nan nan
nan nan nan
nan nan nan
nan nan nan
nan nan nan
nan nan nan
nan nan nan
nan nan nan
nan nan nan
nan nan nan
nan nan nan
nan nan nan
nan nan nan
nan nan nan
nan nan nan
nan nan nan
nan nan nan
nan nan nan
nan nan nan
nan nan nan
nan nan nan
nan nan nan
nan nan nan
nan nan nan
nan nan nan
nan nan nan
nan nan nan
nan nan nan
nan nan nan
nan nan nan
nan nan nan
nan nan nan
nan nan nan
nan nan nan
nan nan nan
nan nan nan
nan nan nan
nan nan nan
nan nan nan
nan nan nan
nan nan nan
nan nan nan
nan nan nan
nan nan nan
nan nan nan
nan nan nan
nan nan nan
nan nan nan
nan nan nan
nan nan nan
nan nan nan
nan nan nan
nan nan nan
nan nan nan
nan nan nan
nan nan nan
nan nan nan
nan nan nan
nan nan nan
nan nan nan
nan nan nan
nan nan nan
nan nan nan
nan nan nan
nan nan nan
nan nan nan
nan nan nan
nan nan nan
nan nan nan
nan nan nan
nan nan nan
nan nan nan
nan nan nan
nan nan nan
nan nan nan
nan nan nan
nan nan nan
nan nan nan
nan nan nan
nan nan nan
nan nan nan
nan nan nan
nan nan nan
nan nan nan
nan nan nan
nan nan nan
nan nan nan
nan nan nan
nan nan nan
nan nan nan
nan nan nan
nan nan nan
nan nan nan
nan nan nan
nan nan nan
nan nan nan
nan nan nan
nan nan nan
nan nan nan
nan nan nan
nan nan nan
nan nan nan
nan nan nan
nan nan nan
nan nan nan
nan nan nan
nan nan nan
nan nan nan
nan nan nan
nan nan nan
nan nan nan
nan nan nan
nan nan nan
nan nan nan
nan nan nan
nan nan nan
nan nan nan
nan nan nan
nan nan nan
nan nan nan
nan nan nan
nan nan nan
nan nan nan
nan nan nan
nan nan nan
nan nan nan
nan nan nan
nan nan nan
nan nan nan
nan nan nan
nan nan nan
nan nan nan
nan nan nan
nan nan nan
nan nan nan
nan nan nan
nan nan nan
nan nan nan
nan nan nan
nan nan nan
nan nan nan
nan nan nan
nan nan nan
nan nan nan
nan nan nan
nan nan nan
nan nan nan
nan nan nan
nan nan nan
nan nan nan
nan nan nan
nan nan nan
nan nan nan
nan nan nan
nan nan nan
nan nan nan
nan nan nan
nan nan nan
nan nan nan
nan nan nan
nan nan nan
nan nan nan
nan nan nan
nan nan nan
nan nan nan
nan nan nan
nan nan nan
nan nan nan
nan nan nan
nan nan nan
nan nan nan
nan nan nan
nan nan nan
nan nan nan
nan nan nan
nan nan nan
nan nan nan
nan nan nan
nan nan nan
nan nan nan
nan nan nan
nan nan nan
nan nan nan
nan nan nan
nan nan nan
nan nan nan
nan nan nan
nan nan nan
nan nan nan
nan nan nan
nan nan nan
nan nan nan
nan nan nan
nan nan nan
nan nan nan
nan nan nan
nan nan nan
nan nan nan
nan nan nan
nan nan nan
nan nan nan
nan nan nan
nan nan nan
nan nan nan
nan nan nan
nan nan nan
nan nan nan
nan nan nan
nan nan nan
nan nan nan
nan nan nan
nan nan nan
nan nan nan
nan nan nan
nan nan nan
nan nan nan
nan nan nan
nan nan nan
nan nan nan
nan nan nan
nan nan nan
nan nan nan
nan nan nan
nan nan nan
nan nan nan
nan nan nan
nan nan nan
nan nan nan
nan nan nan
nan nan nan
nan nan nan
nan nan nan
nan nan nan
nan nan nan
nan nan nan
nan nan nan
nan nan nan
nan nan nan
nan nan nan
nan nan nan
nan nan nan
nan nan nan
nan nan nan
nan nan nan
nan nan nan
nan nan nan
nan nan nan
nan nan nan
nan nan nan
nan nan nan
nan nan nan
nan nan nan
nan nan nan
nan nan nan
nan nan nan
nan nan nan
nan nan nan
nan nan nan
nan nan nan
nan nan nan
nan nan nan
nan nan nan
nan nan nan
nan nan nan
nan nan nan
nan nan nan
nan nan nan
nan nan nan
nan nan nan
nan nan nan
nan nan nan
nan nan nan
nan nan nan
nan nan nan
nan nan nan
nan nan nan
nan nan nan
nan nan nan
nan nan nan
nan nan nan
nan nan nan
nan nan nan
nan nan nan
nan nan nan
nan nan nan
nan nan nan
nan nan nan
nan nan nan
nan nan nan
nan nan nan
nan nan nan
nan nan nan
nan nan nan
nan nan nan
nan nan nan
nan nan nan
nan nan nan
nan nan nan
nan nan nan
nan nan nan
nan nan nan
nan nan nan
nan nan nan
nan nan nan
nan nan nan
nan nan nan
nan nan nan
nan nan nan
nan nan nan
nan nan nan
nan nan nan
nan nan nan
nan nan nan
nan nan nan
nan nan nan
nan nan nan
nan nan nan
nan nan nan
nan nan nan
nan nan nan
nan nan nan
nan nan nan
nan nan nan
nan nan nan
nan nan nan
nan nan nan
nan nan nan
nan nan nan
nan nan nan
nan nan nan
nan nan nan
nan nan nan
nan nan nan
nan nan nan
nan nan nan
nan nan nan
nan nan nan
nan nan nan
nan nan nan
nan nan nan
nan nan nan
nan nan nan
nan nan nan
nan nan nan
nan nan nan
nan nan nan
nan nan nan
nan nan nan
nan nan nan
nan nan nan
nan nan nan
nan nan nan
nan nan nan
nan nan nan
nan nan nan
nan nan nan
nan nan nan
nan nan nan
nan nan nan
nan nan nan
nan nan nan
nan nan nan
nan nan nan
nan nan nan
nan nan nan
nan nan nan
nan nan nan
nan nan nan
nan nan nan
nan nan nan
nan nan nan
nan nan nan
nan nan nan
nan nan nan
nan nan nan
nan nan nan
nan nan nan
nan nan nan
nan nan nan
nan nan nan
nan nan nan
nan nan nan
nan nan nan
nan nan nan
nan nan nan
nan nan nan
nan nan nan
nan nan nan
nan nan nan
nan nan nan
nan nan nan
nan nan nan
nan nan nan
nan nan nan
nan nan nan
nan nan nan
nan nan nan
nan nan nan
nan nan nan
nan nan nan
nan nan nan
nan nan nan
nan nan nan
nan nan nan
nan nan nan
nan nan nan
nan nan nan
nan nan nan
nan nan nan
nan nan nan
nan nan nan
nan nan nan
nan nan nan
nan nan nan
nan nan nan
nan nan nan
nan nan nan
nan nan nan
nan nan nan
nan nan nan
nan nan nan
nan nan nan
nan nan nan
nan nan nan
nan nan nan
nan nan nan
nan nan nan
nan nan nan
nan nan nan
nan nan nan
nan nan nan
nan nan nan
nan nan nan
nan nan nan
nan nan nan
nan nan nan
nan nan nan
nan nan nan
nan nan nan
nan nan nan
nan nan nan
nan nan nan
nan nan nan
nan nan nan
nan nan nan
nan nan nan
nan nan nan
nan nan nan
nan nan nan
nan nan nan
nan nan nan
nan nan nan
nan nan nan
nan nan nan
nan nan nan
nan nan nan
nan nan nan
nan nan nan
nan nan nan
nan nan nan
nan nan nan
nan nan nan
nan nan nan
nan nan nan
nan nan nan
nan nan nan
nan nan nan
nan nan nan
nan nan nan
nan nan nan
nan nan nan
nan nan nan
nan nan nan
nan nan nan
nan nan nan
nan nan nan
nan nan nan
nan nan nan
nan nan nan
nan nan nan
nan nan nan
nan nan nan
nan nan nan
nan nan nan
nan nan nan
nan nan nan
nan nan nan
nan nan nan
nan nan nan
nan nan nan
nan nan nan
nan nan nan
nan nan nan
nan nan nan
nan nan nan
nan nan nan
nan nan nan
nan nan nan
nan nan nan
nan nan nan
nan nan nan
nan nan nan
nan nan nan
nan nan nan
nan nan nan
nan nan nan
nan nan nan
nan nan nan
nan nan nan
nan nan nan
nan nan nan
nan nan nan
nan nan nan
nan nan nan
nan nan nan
nan nan nan
nan nan nan
nan nan nan
nan nan nan
nan nan nan
nan nan nan
nan nan nan
nan nan nan
nan nan nan
nan nan nan
nan nan nan
nan nan nan
nan nan nan
nan nan nan
nan nan nan
nan nan nan
nan nan nan
nan nan nan
nan nan nan
nan nan nan
nan nan nan
nan nan nan
nan nan nan
nan nan nan
nan nan nan
nan nan nan
nan nan nan
nan nan nan
nan nan nan
nan nan nan
nan nan nan
nan nan nan
nan nan nan
nan nan nan
nan nan nan
nan nan nan
nan nan nan
nan nan nan
nan nan nan
nan nan nan
nan nan nan
nan nan nan
nan nan nan
nan nan nan
nan nan nan
nan nan nan
nan nan nan
nan nan nan
nan nan nan
nan nan nan
nan nan nan
nan nan nan
nan nan nan
nan nan nan
nan nan nan
nan nan nan
nan nan nan
nan nan nan
nan nan nan
nan nan nan
nan nan nan
nan nan nan
nan nan nan
nan nan nan
nan nan nan
nan nan nan
nan nan nan
nan nan nan
nan nan nan
nan nan nan
nan nan nan
nan nan nan
nan nan nan
nan nan nan
nan nan nan
nan nan nan
nan nan nan
nan nan nan
nan nan nan
nan nan nan
nan nan nan
nan nan nan
nan nan nan
nan nan nan
nan nan nan
nan nan nan
nan nan nan
nan nan nan
nan nan nan
nan nan nan
nan nan nan
nan nan nan
nan nan nan
nan nan nan
nan nan nan
nan nan nan
nan nan nan
nan nan nan
nan nan nan
nan nan nan
nan nan nan
nan nan nan
nan nan nan
nan nan nan
nan nan nan
nan nan nan
nan nan nan
nan nan nan
nan nan nan
nan nan nan
nan nan nan
nan nan nan
nan nan nan
nan nan nan
nan nan nan
nan nan nan
nan nan nan
nan nan nan
nan nan nan
nan nan nan
nan nan nan
nan nan nan
nan nan nan
nan nan nan
nan nan nan
nan nan nan
nan nan nan
nan nan nan
nan nan nan
nan nan nan
nan nan nan
nan nan nan
nan nan nan
nan nan nan
nan nan nan
nan nan nan
nan nan nan
nan nan nan
nan nan nan
nan nan nan
nan nan nan
nan nan nan
nan nan nan
nan nan nan
nan nan nan
nan nan nan
nan nan nan
nan nan nan
nan nan nan
nan nan nan
nan nan nan
nan nan nan
nan nan nan
nan nan nan
nan nan nan
nan nan nan
nan nan nan
nan nan nan
nan nan nan
nan nan nan
nan nan nan
nan nan nan
nan nan nan
nan nan nan
nan nan nan
nan nan nan
nan nan nan
nan nan nan
nan nan nan
nan nan nan
nan nan nan
nan nan nan
nan nan nan
nan nan nan
nan nan nan
nan nan nan
nan nan nan
nan nan nan
nan nan nan
nan nan nan
nan nan nan
nan nan nan
nan nan nan
nan nan nan
nan nan nan
nan nan nan
nan nan nan
nan nan nan
nan nan nan
nan nan nan
nan nan nan
nan nan nan
nan nan nan
nan nan nan
nan nan nan
nan nan nan
nan nan nan
nan nan nan
nan nan nan
nan nan nan
nan nan nan
nan nan nan
nan nan nan
nan nan nan
nan nan nan
nan nan nan
nan nan nan
nan nan nan
nan nan nan
nan nan nan
nan nan nan
nan nan nan
nan nan nan
nan nan nan
nan nan nan
nan nan nan
nan nan nan
nan nan nan
nan nan nan
nan nan nan
nan nan nan
nan nan nan
nan nan nan
nan nan nan
nan nan nan
nan nan nan
nan nan nan
nan nan nan
nan nan nan
nan nan nan
nan nan nan
nan nan nan
nan nan nan
nan nan nan
nan nan nan
nan nan nan
nan nan nan
nan nan nan
nan nan nan
nan nan nan
nan nan nan
nan nan nan
nan nan nan
nan nan nan
nan nan nan
nan nan nan
nan nan nan
nan nan nan
nan nan nan
nan nan nan
nan nan nan
nan nan nan
nan nan nan
nan nan nan
nan nan nan
nan nan nan
nan nan nan
nan nan nan
nan nan nan
nan nan nan
nan nan nan
nan nan nan
nan nan nan
nan nan nan
nan nan nan
nan nan nan
nan nan nan
nan nan nan
nan nan nan
nan nan nan
nan nan nan
nan nan nan
nan nan nan
nan nan nan
nan nan nan
nan nan nan
nan nan nan
nan nan nan
nan nan nan
nan nan nan
nan nan nan
nan nan nan
nan nan nan
nan nan nan
nan nan nan
nan nan nan
nan nan nan
nan nan nan
nan nan nan
nan nan nan
nan nan nan
nan nan nan
nan nan nan
nan nan nan
nan nan nan
nan nan nan
nan nan nan
nan nan nan
nan nan nan
nan nan nan
nan nan nan
nan nan nan
nan nan nan
nan nan nan
nan nan nan
nan nan nan
nan nan nan
nan nan nan
nan nan nan
nan nan nan
nan nan nan
nan nan nan
nan nan nan
nan nan nan
nan nan nan
nan nan nan
nan nan nan
nan nan nan
nan nan nan
nan nan nan
nan nan nan
nan nan nan
nan nan nan
nan nan nan
nan nan nan
nan nan nan
nan nan nan
nan nan nan
nan nan nan
nan nan nan
nan nan nan
nan nan nan
nan nan nan
nan nan nan
nan nan nan
nan nan nan
nan nan nan
nan nan nan
nan nan nan
nan nan nan
nan nan nan
nan nan nan
nan nan nan
nan nan nan
nan nan nan
nan nan nan
nan nan nan
nan nan nan
nan nan nan
nan nan nan
nan nan nan
nan nan nan
nan nan nan
nan nan nan
nan nan nan
nan nan nan
nan nan nan
nan nan nan
nan nan nan
nan nan nan
nan nan nan
nan nan nan
nan nan nan
nan nan nan
nan nan nan
nan nan nan
nan nan nan
nan nan nan
nan nan nan
nan nan nan
nan nan nan
nan nan nan
nan nan nan
nan nan nan
nan nan nan
nan nan nan
nan nan nan
nan nan nan
nan nan nan
nan nan nan
nan nan nan
nan nan nan
nan nan nan
nan nan nan
nan nan nan
nan nan nan
nan nan nan
nan nan nan
nan nan nan
nan nan nan
nan nan nan
nan nan nan
nan nan nan
nan nan nan
nan nan nan
nan nan nan
nan nan nan
nan nan nan
nan nan nan
nan nan nan
nan nan nan
nan nan nan
nan nan nan
nan nan nan
nan nan nan
nan nan nan
nan nan nan
nan nan nan
nan nan nan
nan nan nan
nan nan nan
nan nan nan
nan nan nan
nan nan nan
nan nan nan
nan nan nan
nan nan nan
nan nan nan
nan nan nan
nan nan nan
nan nan nan
nan nan nan
nan nan nan
nan nan nan
nan nan nan
nan nan nan
nan nan nan
nan nan nan
nan nan nan
nan nan nan
nan nan nan
nan nan nan
nan nan nan
nan nan nan
nan nan nan
nan nan nan
nan nan nan
nan nan nan
nan nan nan
nan nan nan
nan nan nan
nan nan nan
nan nan nan
nan nan nan
nan nan nan
nan nan nan
nan nan nan
nan nan nan
nan nan nan
nan nan nan
nan nan nan
nan nan nan
nan nan nan
nan nan nan
nan nan nan
nan nan nan
nan nan nan
nan nan nan
nan nan nan
nan nan nan
nan nan nan
nan nan nan
nan nan nan
nan nan nan
nan nan nan
nan nan nan
nan nan nan
nan nan nan
nan nan nan
nan nan nan
nan nan nan
nan nan nan
nan nan nan
nan nan nan
nan nan nan
nan nan nan
nan nan nan
nan nan nan
nan nan nan
nan nan nan
nan nan nan
nan nan nan
nan nan nan
nan nan nan
nan nan nan
nan nan nan
nan nan nan
nan nan nan
nan nan nan
nan nan nan
nan nan nan
nan nan nan
nan nan nan
nan nan nan
nan nan nan
nan nan nan
nan nan nan
nan nan nan
nan nan nan
nan nan nan
nan nan nan
nan nan nan
nan nan nan
nan nan nan
nan nan nan
nan nan nan
nan nan nan
nan nan nan
nan nan nan
nan nan nan
nan nan nan
nan nan nan
nan nan nan
nan nan nan
nan nan nan
nan nan nan
nan nan nan
nan nan nan
nan nan nan
nan nan nan
nan nan nan
nan nan nan
nan nan nan
nan nan nan
nan nan nan
nan nan nan
nan nan nan
nan nan nan
nan nan nan
nan nan nan
nan nan nan
nan nan nan
nan nan nan
nan nan nan
nan nan nan
nan nan nan
nan nan nan
nan nan nan
nan nan nan
nan nan nan
nan nan nan
nan nan nan
nan nan nan
nan nan nan
nan nan nan
nan nan nan
nan nan nan
nan nan nan
nan nan nan
nan nan nan
nan nan nan
nan nan nan
nan nan nan
nan nan nan
nan nan nan
nan nan nan
nan nan nan
nan nan nan
nan nan nan
nan nan nan
nan nan nan
nan nan nan
nan nan nan
nan nan nan
nan nan nan
nan nan nan
nan nan nan
nan nan nan
nan nan nan
nan nan nan
nan nan nan
nan nan nan
nan nan nan
nan nan nan
nan nan nan
nan nan nan
nan nan nan
nan nan nan
nan nan nan
nan nan nan
nan nan nan
nan nan nan
nan nan nan
nan nan nan
nan nan nan
nan nan nan
nan nan nan
nan nan nan
nan nan nan
nan nan nan
nan nan nan
nan nan nan
nan nan nan
nan nan nan
nan nan nan
nan nan nan
nan nan nan
nan nan nan
nan nan nan
nan nan nan
nan nan nan
nan nan nan
nan nan nan
nan nan nan
nan nan nan
nan nan nan
nan nan nan
nan nan nan
nan nan nan
nan nan nan
nan nan nan
nan nan nan
nan nan nan
nan nan nan
nan nan nan
nan nan nan
nan nan nan
nan nan nan
nan nan nan
nan nan nan
nan nan nan
nan nan nan
nan nan nan
nan nan nan
nan nan nan
nan nan nan
nan nan nan
nan nan nan
nan nan nan
nan nan nan
nan nan nan
nan nan nan
nan nan nan
nan nan nan
nan nan nan
nan nan nan
nan nan nan
nan nan nan
nan nan nan
nan nan nan
nan nan nan
nan nan nan
nan nan nan
nan nan nan
nan nan nan
nan nan nan
nan nan nan
nan nan nan
nan nan nan
nan nan nan
nan nan nan
nan nan nan
nan nan nan
nan nan nan
nan nan nan
nan nan nan
nan nan nan
nan nan nan
nan nan nan
nan nan nan
nan nan nan
nan nan nan
nan nan nan
nan nan nan
nan nan nan
nan nan nan
nan nan nan
nan nan nan
nan nan nan
nan nan nan
nan nan nan
nan nan nan
nan nan nan
nan nan nan
nan nan nan
nan nan nan
nan nan nan
nan nan nan
nan nan nan
nan nan nan
nan nan nan
nan nan nan
nan nan nan
nan nan nan
nan nan nan
nan nan nan
nan nan nan
nan nan nan
nan nan nan
nan nan nan
nan nan nan
nan nan nan
nan nan nan
nan nan nan
nan nan nan
nan nan nan
nan nan nan
nan nan nan
nan nan nan
nan nan nan
nan nan nan
nan nan nan
nan nan nan
nan nan nan
nan nan nan
nan nan nan
nan nan nan
nan nan nan
nan nan nan
nan nan nan
nan nan nan
nan nan nan
nan nan nan
nan nan nan
nan nan nan
nan nan nan
nan nan nan
nan nan nan
nan nan nan
nan nan nan
nan nan nan
nan nan nan
nan nan nan
nan nan nan
nan nan nan
nan nan nan
nan nan nan
nan nan nan
nan nan nan
nan nan nan
nan nan nan
nan nan nan
nan nan nan
nan nan nan
nan nan nan
nan nan nan
nan nan nan
nan nan nan
nan nan nan
nan nan nan
nan nan nan
nan nan nan
nan nan nan
nan nan nan
nan nan nan
nan nan nan
nan nan nan
nan nan nan
nan nan nan
nan nan nan
nan nan nan
nan nan nan
nan nan nan
nan nan nan
nan nan nan
nan nan nan
nan nan nan
nan nan nan
nan nan nan
nan nan nan
nan nan nan
nan nan nan
nan nan nan
nan nan nan
nan nan nan
nan nan nan
nan nan nan
nan nan nan
nan nan nan
nan nan nan
nan nan nan
nan nan nan
nan nan nan
nan nan nan
nan nan nan
nan nan nan
nan nan nan
nan nan nan
nan nan nan
nan nan nan
nan nan nan
nan nan nan
nan nan nan
nan nan nan
nan nan nan
nan nan nan
nan nan nan
nan nan nan
nan nan nan
nan nan nan
nan nan nan
nan nan nan
nan nan nan
nan nan nan
nan nan nan
nan nan nan
nan nan nan
nan nan nan
nan nan nan
nan nan nan
nan nan nan
nan nan nan
nan nan nan
nan nan nan
nan nan nan
nan nan nan
nan nan nan
nan nan nan
nan nan nan
nan nan nan
nan nan nan
nan nan nan
nan nan nan
nan nan nan
nan nan nan
nan nan nan
nan nan nan
nan nan nan
nan nan nan
nan nan nan
nan nan nan
nan nan nan
nan nan nan
nan nan nan
nan nan nan
nan nan nan
nan nan nan
nan nan nan
nan nan nan
nan nan nan
nan nan nan
nan nan nan
nan nan nan
nan nan nan
nan nan nan
nan nan nan
nan nan nan
nan nan nan
nan nan nan
nan nan nan
nan nan nan
nan nan nan
nan nan nan
nan nan nan
nan nan nan
nan nan nan
nan nan nan
nan nan nan
nan nan nan
nan nan nan
nan nan nan
nan nan nan
nan nan nan
nan nan nan
nan nan nan
nan nan nan
nan nan nan
nan nan nan
nan nan nan
nan nan nan
nan nan nan
nan nan nan
nan nan nan
nan nan nan
nan nan nan
nan nan nan
nan nan nan
nan nan nan
nan nan nan
nan nan nan
nan nan nan
nan nan nan
nan nan nan
nan nan nan
nan nan nan
nan nan nan
nan nan nan
nan nan nan
nan nan nan
nan nan nan
nan nan nan
nan nan nan
nan nan nan
nan nan nan
nan nan nan
nan nan nan
nan nan nan
nan nan nan
nan nan nan
nan nan nan
nan nan nan
nan nan nan
nan nan nan
nan nan nan
nan nan nan
nan nan nan
nan nan nan
nan nan nan
nan nan nan
nan nan nan
nan nan nan
nan nan nan
nan nan nan
nan nan nan
nan nan nan
nan nan nan
nan nan nan
nan nan nan
nan nan nan
nan nan nan
nan nan nan
nan nan nan
nan nan nan
nan nan nan
nan nan nan
nan nan nan
nan nan nan
nan nan nan
nan nan nan
nan nan nan
nan nan nan
nan nan nan
nan nan nan
nan nan nan
nan nan nan
nan nan nan
nan nan nan
nan nan nan
nan nan nan
nan nan nan
nan nan nan
nan nan nan
nan nan nan
nan nan nan
nan nan nan
nan nan nan
nan nan nan
nan nan nan
nan nan nan
nan nan nan
nan nan nan
nan nan nan
nan nan nan
nan nan nan
nan nan nan
nan nan nan
nan nan nan
nan nan nan
nan nan nan
nan nan nan
nan nan nan
nan nan nan
nan nan nan
nan nan nan
nan nan nan
nan nan nan
nan nan nan
nan nan nan
nan nan nan
nan nan nan
nan nan nan
nan nan nan
nan nan nan
nan nan nan
nan nan nan
nan nan nan
nan nan nan
nan nan nan
nan nan nan
nan nan nan
nan nan nan
nan nan nan
nan nan nan
nan nan nan
nan nan nan
nan nan nan
nan nan nan
nan nan nan
nan nan nan
nan nan nan
nan nan nan
nan nan nan
nan nan nan
nan nan nan
nan nan nan
nan nan nan
nan nan nan
nan nan nan
nan nan nan
nan nan nan
nan nan nan
nan nan nan
nan nan nan
nan nan nan
nan nan nan
nan nan nan
nan nan nan
nan nan nan
nan nan nan
nan nan nan
nan nan nan
nan nan nan
nan nan nan
nan nan nan
nan nan nan
nan nan nan
nan nan nan
nan nan nan
nan nan nan
nan nan nan
nan nan nan
nan nan nan
nan nan nan
nan nan nan
nan nan nan
nan nan nan
nan nan nan
nan nan nan
nan nan nan
nan nan nan
nan nan nan
nan nan nan
nan nan nan
nan nan nan
nan nan nan
nan nan nan
nan nan nan
nan nan nan
nan nan nan
nan nan nan
nan nan nan
nan nan nan
nan nan nan
nan nan nan
nan nan nan
nan nan nan
nan nan nan
nan nan nan
nan nan nan
nan nan nan
nan nan nan
nan nan nan
nan nan nan
nan nan nan
nan nan nan
nan nan nan
nan nan nan
nan nan nan
nan nan nan
nan nan nan
nan nan nan
nan nan nan
nan nan nan
nan nan nan
nan nan nan
nan nan nan
nan nan nan
nan nan nan
nan nan nan
nan nan nan
nan nan nan
nan nan nan
nan nan nan
nan nan nan
nan nan nan
nan nan nan
nan nan nan
nan nan nan
nan nan nan
nan nan nan
nan nan nan
nan nan nan
nan nan nan
nan nan nan
nan nan nan
nan nan nan
nan nan nan
nan nan nan
nan nan nan
nan nan nan
nan nan nan
nan nan nan
nan nan nan
nan nan nan
nan nan nan
nan nan nan
nan nan nan
nan nan nan
nan nan nan
nan nan nan
nan nan nan
nan nan nan
nan nan nan
nan nan nan
nan nan nan
nan nan nan
nan nan nan
nan nan nan
nan nan nan
nan nan nan
nan nan nan
nan nan nan
nan nan nan
nan nan nan
nan nan nan
nan nan nan
nan nan nan
nan nan nan
nan nan nan
nan nan nan
nan nan nan
nan nan nan
nan nan nan
nan nan nan
nan nan nan
nan nan nan
nan nan nan
nan nan nan
nan nan nan
nan nan nan
nan nan nan
nan nan nan
nan nan nan
nan nan nan
nan nan nan
nan nan nan
nan nan nan
nan nan nan
nan nan nan
nan nan nan
nan nan nan
nan nan nan
nan nan nan
nan nan nan
nan nan nan
nan nan nan
nan nan nan
nan nan nan
nan nan nan
nan nan nan
nan nan nan
nan nan nan
nan nan nan
nan nan nan
nan nan nan
nan nan nan
nan nan nan
nan nan nan
nan nan nan
nan nan nan
nan nan nan
nan nan nan
nan nan nan
nan nan nan
nan nan nan
nan nan nan
nan nan nan
nan nan nan
nan nan nan
nan nan nan
nan nan nan
nan nan nan
nan nan nan
nan nan nan
nan nan nan
nan nan nan
nan nan nan
nan nan nan
nan nan nan
nan nan nan
nan nan nan
nan nan nan
nan nan nan
nan nan nan
nan nan nan
nan nan nan
nan nan nan
nan nan nan
nan nan nan
nan nan nan
nan nan nan
nan nan nan
nan nan nan
nan nan nan
nan nan nan
nan nan nan
nan nan nan
nan nan nan
nan nan nan
nan nan nan
nan nan nan
nan nan nan
nan nan nan
nan nan nan
nan nan nan
nan nan nan
nan nan nan
nan nan nan
nan nan nan
nan nan nan
nan nan nan
nan nan nan
nan nan nan
nan nan nan
nan nan nan
nan nan nan
nan nan nan
nan nan nan
nan nan nan
nan nan nan
nan nan nan
nan nan nan
nan nan nan
nan nan nan
nan nan nan
nan nan nan
nan nan nan
nan nan nan
nan nan nan
nan nan nan
nan nan nan
nan nan nan
nan nan nan
nan nan nan
nan nan nan
nan nan nan
nan nan nan
nan nan nan
nan nan nan
nan nan nan
nan nan nan
nan nan nan
nan nan nan
nan nan nan
nan nan nan
nan nan nan
nan nan nan
nan nan nan
nan nan nan
nan nan nan
nan nan nan
nan nan nan
nan nan nan
nan nan nan
nan nan nan
nan nan nan
nan nan nan
nan nan nan
nan nan nan
nan nan nan
nan nan nan
nan nan nan
nan nan nan
nan nan nan
nan nan nan
nan nan nan
nan nan nan
nan nan nan
nan nan nan
nan nan nan
nan nan nan
nan nan nan
nan nan nan
nan nan nan
nan nan nan
nan nan nan
nan nan nan
nan nan nan
nan nan nan
nan nan nan
nan nan nan
nan nan nan
nan nan nan
nan nan nan
nan nan nan
nan nan nan
nan nan nan
nan nan nan
nan nan nan
nan nan nan
nan nan nan
nan nan nan
nan nan nan
nan nan nan
nan nan nan
nan nan nan
nan nan nan
nan nan nan
nan nan nan
nan nan nan
nan nan nan
nan nan nan
nan nan nan
nan nan nan
nan nan nan
nan nan nan
nan nan nan
nan nan nan
nan nan nan
nan nan nan
nan nan nan
nan nan nan
nan nan nan
nan nan nan
nan nan nan
nan nan nan
nan nan nan
nan nan nan
nan nan nan
nan nan nan
nan nan nan
nan nan nan
nan nan nan
nan nan nan
nan nan nan
nan nan nan
nan nan nan
nan nan nan
nan nan nan
nan nan nan
nan nan nan
nan nan nan
nan nan nan
nan nan nan
nan nan nan
nan nan nan
nan nan nan
nan nan nan
nan nan nan
nan nan nan
nan nan nan
nan nan nan
nan nan nan
nan nan nan
nan nan nan
nan nan nan
nan nan nan
nan nan nan
nan nan nan
nan nan nan
nan nan nan
nan nan nan
nan nan nan
nan nan nan
nan nan nan
nan nan nan
nan nan nan
nan nan nan
nan nan nan
nan nan nan
nan nan nan
nan nan nan
nan nan nan
nan nan nan
nan nan nan
nan nan nan
nan nan nan
nan nan nan
nan nan nan
nan nan nan
nan nan nan
nan nan nan
nan nan nan
nan nan nan
nan nan nan
nan nan nan
nan nan nan
nan nan nan
nan nan nan
nan nan nan
nan nan nan
nan nan nan
nan nan nan
nan nan nan
nan nan nan
nan nan nan
nan nan nan
nan nan nan
nan nan nan
nan nan nan
nan nan nan
nan nan nan
nan nan nan
nan nan nan
nan nan nan
nan nan nan
nan nan nan
nan nan nan
nan nan nan
nan nan nan
nan nan nan
nan nan nan
nan nan nan
nan nan nan
nan nan nan
nan nan nan
nan nan nan
nan nan nan
nan nan nan
nan nan nan
nan nan nan
nan nan nan
nan nan nan
nan nan nan
nan nan nan
nan nan nan
nan nan nan
nan nan nan
nan nan nan
nan nan nan
nan nan nan
nan nan nan
nan nan nan
nan nan nan
nan nan nan
nan nan nan
nan nan nan
nan nan nan
nan nan nan
nan nan nan
nan nan nan
nan nan nan
nan nan nan
nan nan nan
nan nan nan
nan nan nan
nan nan nan
nan nan nan
nan nan nan
nan nan nan
nan nan nan
nan nan nan
nan nan nan
nan nan nan
nan nan nan
nan nan nan
nan nan nan
nan nan nan
nan nan nan
nan nan nan
nan nan nan
nan nan nan
nan nan nan
nan nan nan
nan nan nan
nan nan nan
nan nan nan
nan nan nan
nan nan nan
nan nan nan
nan nan nan
nan nan nan
nan nan nan
nan nan nan
nan nan nan
nan nan nan
nan nan nan
nan nan nan
nan nan nan
nan nan nan
nan nan nan
nan nan nan
nan nan nan
nan nan nan
nan nan nan
nan nan nan
nan nan nan
nan nan nan
nan nan nan
nan nan nan
nan nan nan
nan nan nan
nan nan nan
nan nan nan
nan nan nan
nan nan nan
nan nan nan
nan nan nan
nan nan nan
nan nan nan
nan nan nan
nan nan nan
nan nan nan
nan nan nan
nan nan nan
nan nan nan
nan nan nan
nan nan nan
nan nan nan
nan nan nan
nan nan nan
nan nan nan
nan nan nan
nan nan nan
nan nan nan
nan nan nan
nan nan nan
nan nan nan
nan nan nan
nan nan nan
nan nan nan
nan nan nan
nan nan nan
nan nan nan
nan nan nan
nan nan nan
nan nan nan
nan nan nan
nan nan nan
nan nan nan
nan nan nan
nan nan nan
nan nan nan
nan nan nan
nan nan nan
nan nan nan
nan nan nan
nan nan nan
nan nan nan
nan nan nan
nan nan nan
nan nan nan
nan nan nan
nan nan nan
nan nan nan
nan nan nan
nan nan nan
nan nan nan
nan nan nan
nan nan nan
nan nan nan
nan nan nan
nan nan nan
nan nan nan
nan nan nan
nan nan nan
nan nan nan
nan nan nan
nan nan nan
nan nan nan
nan nan nan
nan nan nan
nan nan nan
nan nan nan
nan nan nan
nan nan nan
nan nan nan
nan nan nan
nan nan nan
nan nan nan
nan nan nan
nan nan nan
nan nan nan
nan nan nan
nan nan nan
nan nan nan
nan nan nan
nan nan nan
nan nan nan
nan nan nan
nan nan nan
nan nan nan
nan nan nan
nan nan nan
nan nan nan
nan nan nan
nan nan nan
nan nan nan
nan nan nan
nan nan nan
nan nan nan
nan nan nan
nan nan nan
nan nan nan
nan nan nan
nan nan nan
nan nan nan
nan nan nan
nan nan nan
nan nan nan
nan nan nan
nan nan nan
nan nan nan
nan nan nan
nan nan nan
nan nan nan
nan nan nan
nan nan nan
nan nan nan
nan nan nan
nan nan nan
nan nan nan
nan nan nan
nan nan nan
nan nan nan
nan nan nan
nan nan nan
nan nan nan
nan nan nan
nan nan nan
nan nan nan
nan nan nan
nan nan nan
nan nan nan
nan nan nan
nan nan nan
nan nan nan
nan nan nan
nan nan nan
nan nan nan
nan nan nan
nan nan nan
nan nan nan
nan nan nan
nan nan nan
nan nan nan
nan nan nan
nan nan nan
nan nan nan
nan nan nan
nan nan nan
nan nan nan
nan nan nan
nan nan nan
nan nan nan
nan nan nan
nan nan nan
nan nan nan
nan nan nan
nan nan nan
nan nan nan
nan nan nan
nan nan nan
nan nan nan
nan nan nan
nan nan nan
nan nan nan
nan nan nan
nan nan nan
nan nan nan
nan nan nan
nan nan nan
nan nan nan
nan nan nan
nan nan nan
nan nan nan
nan nan nan
nan nan nan
nan nan nan
nan nan nan
nan nan nan
nan nan nan
nan nan nan
nan nan nan
nan nan nan
nan nan nan
nan nan nan
nan nan nan
nan nan nan
nan nan nan
nan nan nan
nan nan nan
nan nan nan
nan nan nan
nan nan nan
nan nan nan
nan nan nan
nan nan nan
nan nan nan
nan nan nan
nan nan nan
nan nan nan
nan nan nan
nan nan nan
nan nan nan
nan nan nan
nan nan nan
nan nan nan
nan nan nan
nan nan nan
nan nan nan
nan nan nan
nan nan nan
nan nan nan
nan nan nan
nan nan nan
nan nan nan
nan nan nan
nan nan nan
nan nan nan
nan nan nan
nan nan nan
nan nan nan
nan nan nan
nan nan nan
nan nan nan
nan nan nan
nan nan nan
nan nan nan
nan nan nan
nan nan nan
nan nan nan
nan nan nan
nan nan nan
nan nan nan
nan nan nan
nan nan nan
nan nan nan
nan nan nan
nan nan nan
nan nan nan
nan nan nan
nan nan nan
nan nan nan
nan nan nan
nan nan nan
nan nan nan
nan nan nan
nan nan nan
nan nan nan
nan nan nan
nan nan nan
nan nan nan
nan nan nan
nan nan nan
nan nan nan
nan nan nan
nan nan nan
nan nan nan
nan nan nan
nan nan nan
nan nan nan
nan nan nan
nan nan nan
nan nan nan
nan nan nan
nan nan nan
nan nan nan
nan nan nan
nan nan nan
nan nan nan
nan nan nan
nan nan nan
nan nan nan
nan nan nan
nan nan nan
nan nan nan
nan nan nan
nan nan nan
nan nan nan
nan nan nan
nan nan nan
nan nan nan
nan nan nan
nan nan nan
nan nan nan
nan nan nan
nan nan nan
nan nan nan
nan nan nan
nan nan nan
nan nan nan
nan nan nan
nan nan nan
nan nan nan
nan nan nan
nan nan nan
nan nan nan
nan nan nan
nan nan nan
nan nan nan
nan nan nan
nan nan nan
nan nan nan
nan nan nan
nan nan nan
nan nan nan
nan nan nan
nan nan nan
nan nan nan
nan nan nan
nan nan nan
nan nan nan
nan nan nan
nan nan nan
nan nan nan
nan nan nan
nan nan nan
nan nan nan
nan nan nan
nan nan nan
nan nan nan
nan nan nan
nan nan nan
nan nan nan
nan nan nan
nan nan nan
nan nan nan
nan nan nan
nan nan nan
nan nan nan
nan nan nan
nan nan nan
nan nan nan
nan nan nan
nan nan nan
nan nan nan
nan nan nan
nan nan nan
nan nan nan
nan nan nan
nan nan nan
nan nan nan
nan nan nan
nan nan nan
nan nan nan
nan nan nan
nan nan nan
nan nan nan
nan nan nan
nan nan nan
nan nan nan
nan nan nan
nan nan nan
nan nan nan
nan nan nan
nan nan nan
nan nan nan
nan nan nan
nan nan nan
nan nan nan
nan nan nan
nan nan nan
nan nan nan
nan nan nan
nan nan nan
nan nan nan
nan nan nan
nan nan nan
nan nan nan
nan nan nan
nan nan nan
nan nan nan
nan nan nan
nan nan nan
nan nan nan
nan nan nan
nan nan nan
nan nan nan
nan nan nan
nan nan nan
nan nan nan
nan nan nan
nan nan nan
nan nan nan
nan nan nan
nan nan nan
nan nan nan
nan nan nan
nan nan nan
nan nan nan
nan nan nan
nan nan nan
nan nan nan
nan nan nan
nan nan nan
nan nan nan
nan nan nan
nan nan nan
nan nan nan
nan nan nan
nan nan nan
nan nan nan
nan nan nan
nan nan nan
nan nan nan
nan nan nan
nan nan nan
nan nan nan
nan nan nan
nan nan nan
nan nan nan
nan nan nan
nan nan nan
nan nan nan
nan nan nan
nan nan nan
nan nan nan
nan nan nan
nan nan nan
nan nan nan
nan nan nan
nan nan nan
nan nan nan
nan nan nan
nan nan nan
nan nan nan
nan nan nan
nan nan nan
nan nan nan
nan nan nan
nan nan nan
nan nan nan
nan nan nan
nan nan nan
nan nan nan
nan nan nan
nan nan nan
nan nan nan
nan nan nan
nan nan nan
nan nan nan
nan nan nan
nan nan nan
nan nan nan
nan nan nan
nan nan nan
nan nan nan
nan nan nan
nan nan nan
nan nan nan
nan nan nan
nan nan nan
nan nan nan
nan nan nan
nan nan nan
nan nan nan
nan nan nan
nan nan nan
nan nan nan
nan nan nan
nan nan nan
nan nan nan
nan nan nan
nan nan nan
nan nan nan
nan nan nan
nan nan nan
nan nan nan
nan nan nan
nan nan nan
nan nan nan
nan nan nan
nan nan nan
nan nan nan
nan nan nan
nan nan nan
nan nan nan
nan nan nan
nan nan nan
nan nan nan
nan nan nan
nan nan nan
nan nan nan
nan nan nan
nan nan nan
nan nan nan
nan nan nan
nan nan nan
nan nan nan
nan nan nan
nan nan nan
nan nan nan
nan nan nan
nan nan nan
nan nan nan
nan nan nan
nan nan nan
nan nan nan
nan nan nan
nan nan nan
nan nan nan
nan nan nan
nan nan nan
nan nan nan
nan nan nan
nan nan nan
nan nan nan
nan nan nan
nan nan nan
nan nan nan
nan nan nan
nan nan nan
nan nan nan
nan nan nan
nan nan nan
nan nan nan
nan nan nan
nan nan nan
nan nan nan
nan nan nan
nan nan nan
nan nan nan
nan nan nan
nan nan nan
nan nan nan
nan nan nan
nan nan nan
nan nan nan
nan nan nan
nan nan nan
nan nan nan
nan nan nan
nan nan nan
nan nan nan
nan nan nan
nan nan nan
nan nan nan
nan nan nan
nan nan nan
nan nan nan
nan nan nan
nan nan nan
nan nan nan
nan nan nan
nan nan nan
nan nan nan
nan nan nan
nan nan nan
nan nan nan
nan nan nan
nan nan nan
nan nan nan
nan nan nan
nan nan nan
nan nan nan
nan nan nan
nan nan nan
nan nan nan
nan nan nan
nan nan nan
nan nan nan
nan nan nan
nan nan nan
nan nan nan
nan nan nan
nan nan nan
nan nan nan
nan nan nan
nan nan nan
nan nan nan
nan nan nan
nan nan nan
nan nan nan
nan nan nan
nan nan nan
nan nan nan
nan nan nan
nan nan nan
nan nan nan
nan nan nan
nan nan nan
nan nan nan
nan nan nan
nan nan nan
nan nan nan
nan nan nan
nan nan nan
nan nan nan
nan nan nan
nan nan nan
nan nan nan
nan nan nan
nan nan nan
nan nan nan
nan nan nan
nan nan nan
nan nan nan
nan nan nan
nan nan nan
nan nan nan
nan nan nan
nan nan nan
nan nan nan
nan nan nan
nan nan nan
nan nan nan
nan nan nan
nan nan nan
nan nan nan
nan nan nan
nan nan nan
nan nan nan
nan nan nan
nan nan nan
nan nan nan
nan nan nan
nan nan nan
nan nan nan
nan nan nan
nan nan nan
nan nan nan
nan nan nan
nan nan nan
nan nan nan
nan nan nan
nan nan nan
nan nan nan
nan nan nan
nan nan nan
nan nan nan
nan nan nan
nan nan nan
nan nan nan
nan nan nan
nan nan nan
nan nan nan
nan nan nan
nan nan nan
nan nan nan
nan nan nan
nan nan nan
nan nan nan
nan nan nan
nan nan nan
nan nan nan
nan nan nan
nan nan nan
nan nan nan
nan nan nan
nan nan nan
nan nan nan
nan nan nan
nan nan nan
nan nan nan
nan nan nan
nan nan nan
nan nan nan
nan nan nan
nan nan nan
nan nan nan
nan nan nan
nan nan nan
nan nan nan
nan nan nan
nan nan nan
nan nan nan
nan nan nan
nan nan nan
nan nan nan
nan nan nan
nan nan nan
nan nan nan
nan nan nan
nan nan nan
nan nan nan
nan nan nan
nan nan nan
nan nan nan
nan nan nan
nan nan nan
nan nan nan
nan nan nan
nan nan nan
nan nan nan
nan nan nan
nan nan nan
nan nan nan
nan nan nan
nan nan nan
nan nan nan
nan nan nan
nan nan nan
nan nan nan
nan nan nan
nan nan nan
nan nan nan
nan nan nan
nan nan nan
nan nan nan
nan nan nan
nan nan nan
nan nan nan
nan nan nan
nan nan nan
nan nan nan
nan nan nan
nan nan nan
nan nan nan
nan nan nan
nan nan nan
nan nan nan
nan nan nan
nan nan nan
nan nan nan
nan nan nan
nan nan nan
nan nan nan
nan nan nan
nan nan nan
nan nan nan
nan nan nan
nan nan nan
nan nan nan
nan nan nan
nan nan nan
nan nan nan
nan nan nan
nan nan nan
nan nan nan
nan nan nan
nan nan nan
nan nan nan
nan nan nan
nan nan nan
nan nan nan
nan nan nan
nan nan nan
nan nan nan
nan nan nan
nan nan nan
nan nan nan
nan nan nan
nan nan nan
nan nan nan
nan nan nan
nan nan nan
nan nan nan
nan nan nan
nan nan nan
nan nan nan
nan nan nan
nan nan nan
nan nan nan
nan nan nan
nan nan nan
nan nan nan
nan nan nan
nan nan nan
nan nan nan
nan nan nan
nan nan nan
nan nan nan
nan nan nan
nan nan nan
nan nan nan
nan nan nan
nan nan nan
nan nan nan
nan nan nan
nan nan nan
nan nan nan
nan nan nan
nan nan nan
nan nan nan
nan nan nan
nan nan nan
nan nan nan
nan nan nan
nan nan nan
nan nan nan
nan nan nan
nan nan nan
nan nan nan
nan nan nan
nan nan nan
nan nan nan
nan nan nan
nan nan nan
nan nan nan
nan nan nan
nan nan nan
nan nan nan
nan nan nan
nan nan nan
nan nan nan
nan nan nan
nan nan nan
nan nan nan
nan nan nan
nan nan nan
nan nan nan
nan nan nan
nan nan nan
nan nan nan
nan nan nan
nan nan nan
nan nan nan
nan nan nan
nan nan nan
nan nan nan
nan nan nan
nan nan nan
nan nan nan
nan nan nan
nan nan nan
nan nan nan
nan nan nan
nan nan nan
nan nan nan
nan nan nan
nan nan nan
nan nan nan
nan nan nan
nan nan nan
nan nan nan
nan nan nan
nan nan nan
nan nan nan
nan nan nan
nan nan nan
nan nan nan
nan nan nan
nan nan nan
nan nan nan
nan nan nan
nan nan nan
nan nan nan
nan nan nan
nan nan nan
nan nan nan
nan nan nan
nan nan nan
nan nan nan
nan nan nan
nan nan nan
nan nan nan
nan nan nan
nan nan nan
nan nan nan
nan nan nan
nan nan nan
nan nan nan
nan nan nan
nan nan nan
nan nan nan
nan nan nan
nan nan nan
nan nan nan
nan nan nan
nan nan nan
nan nan nan
nan nan nan
nan nan nan
nan nan nan
nan nan nan
nan nan nan
nan nan nan
nan nan nan
nan nan nan
nan nan nan
nan nan nan
nan nan nan
nan nan nan
nan nan nan
nan nan nan
nan nan nan
nan nan nan
nan nan nan
nan nan nan
nan nan nan
nan nan nan
nan nan nan
nan nan nan
nan nan nan
nan nan nan
nan nan nan
nan nan nan
nan nan nan
nan nan nan
nan nan nan
nan nan nan
nan nan nan
nan nan nan
nan nan nan
nan nan nan
nan nan nan
nan nan nan
nan nan nan
nan nan nan
nan nan nan
nan nan nan
nan nan nan
nan nan nan
nan nan nan
nan nan nan
nan nan nan
nan nan nan
nan nan nan
nan nan nan
nan nan nan
nan nan nan
nan nan nan
nan nan nan
nan nan nan
nan nan nan
nan nan nan
nan nan nan
nan nan nan
nan nan nan
nan nan nan
nan nan nan
nan nan nan
nan nan nan
nan nan nan
nan nan nan
nan nan nan
nan nan nan
nan nan nan
nan nan nan
nan nan nan
nan nan nan
nan nan nan
nan nan nan
nan nan nan
nan nan nan
nan nan nan
nan nan nan
nan nan nan
nan nan nan
nan nan nan
nan nan nan
nan nan nan
nan nan nan
nan nan nan
nan nan nan
nan nan nan
nan nan nan
nan nan nan
nan nan nan
nan nan nan
nan nan nan
nan nan nan
nan nan nan
nan nan nan
nan nan nan
nan nan nan
nan nan nan
nan nan nan
nan nan nan
nan nan nan
nan nan nan
nan nan nan
nan nan nan
nan nan nan
nan nan nan
nan nan nan
nan nan nan
nan nan nan
nan nan nan
nan nan nan
nan nan nan
nan nan nan
nan nan nan
nan nan nan
nan nan nan
nan nan nan
nan nan nan
nan nan nan
nan nan nan
nan nan nan
nan nan nan
nan nan nan
nan nan nan
nan nan nan
nan nan nan
nan nan nan
nan nan nan
nan nan nan
nan nan nan
nan nan nan
nan nan nan
nan nan nan
nan nan nan
nan nan nan
nan nan nan
nan nan nan
nan nan nan
nan nan nan
nan nan nan
nan nan nan
nan nan nan
nan nan nan
nan nan nan
nan nan nan
nan nan nan
nan nan nan
nan nan nan
nan nan nan
nan nan nan
nan nan nan
nan nan nan
nan nan nan
nan nan nan
nan nan nan
nan nan nan
nan nan nan
nan nan nan
nan nan nan
nan nan nan
nan nan nan
nan nan nan
nan nan nan
nan nan nan
nan nan nan
nan nan nan
nan nan nan
nan nan nan
nan nan nan
nan nan nan
nan nan nan
nan nan nan
nan nan nan
nan nan nan
nan nan nan
nan nan nan
nan nan nan
nan nan nan
nan nan nan
nan nan nan
nan nan nan
nan nan nan
nan nan nan
nan nan nan
nan nan nan
nan nan nan
nan nan nan
nan nan nan
nan nan nan
nan nan nan
nan nan nan
nan nan nan
nan nan nan
nan nan nan
nan nan nan
nan nan nan
nan nan nan
nan nan nan
nan nan nan
nan nan nan
nan nan nan
nan nan nan
nan nan nan
nan nan nan
nan nan nan
nan nan nan
nan nan nan
nan nan nan
nan nan nan
nan nan nan
nan nan nan
nan nan nan
nan nan nan
nan nan nan
nan nan nan
nan nan nan
nan nan nan
nan nan nan
nan nan nan
nan nan nan
nan nan nan
nan nan nan
nan nan nan
nan nan nan
nan nan nan
nan nan nan
nan nan nan
nan nan nan
nan nan nan
nan nan nan
nan nan nan
nan nan nan
nan nan nan
nan nan nan
nan nan nan
nan nan nan
nan nan nan
nan nan nan
nan nan nan
nan nan nan
nan nan nan
nan nan nan
nan nan nan
nan nan nan
nan nan nan
nan nan nan
nan nan nan
nan nan nan
nan nan nan
nan nan nan
nan nan nan
nan nan nan
nan nan nan
nan nan nan
nan nan nan
nan nan nan
nan nan nan
nan nan nan
nan nan nan
nan nan nan
nan nan nan
nan nan nan
nan nan nan
nan nan nan
nan nan nan
nan nan nan
nan nan nan
nan nan nan
nan nan nan
nan nan nan
nan nan nan
nan nan nan
nan nan nan
nan nan nan
nan nan nan
nan nan nan
nan nan nan
nan nan nan
nan nan nan
nan nan nan
nan nan nan
nan nan nan
nan nan nan
nan nan nan
nan nan nan
nan nan nan
nan nan nan
nan nan nan
nan nan nan
nan nan nan
nan nan nan
nan nan nan
nan nan nan
nan nan nan
nan nan nan
nan nan nan
nan nan nan
nan nan nan
nan nan nan
nan nan nan
nan nan nan
nan nan nan
nan nan nan
nan nan nan
nan nan nan
nan nan nan
nan nan nan
nan nan nan
nan nan nan
nan nan nan
nan nan nan
nan nan nan
nan nan nan
nan nan nan
nan nan nan
nan nan nan
nan nan nan
nan nan nan
nan nan nan
nan nan nan
nan nan nan
nan nan nan
nan nan nan
nan nan nan
nan nan nan
nan nan nan
nan nan nan
nan nan nan
nan nan nan
nan nan nan
nan nan nan
nan nan nan
nan nan nan
nan nan nan
nan nan nan
nan nan nan
nan nan nan
nan nan nan
nan nan nan
nan nan nan
nan nan nan
nan nan nan
nan nan nan
nan nan nan
nan nan nan
nan nan nan
nan nan nan
nan nan nan
nan nan nan
nan nan nan
nan nan nan
nan nan nan
nan nan nan
nan nan nan
nan nan nan
nan nan nan
nan nan nan
nan nan nan
nan nan nan
nan nan nan
nan nan nan
nan nan nan
nan nan nan
nan nan nan
nan nan nan
nan nan nan
nan nan nan
nan nan nan
nan nan nan
nan nan nan
nan nan nan
nan nan nan
nan nan nan
nan nan nan
nan nan nan
nan nan nan
nan nan nan
nan nan nan
nan nan nan
nan nan nan
nan nan nan
nan nan nan
nan nan nan
nan nan nan
nan nan nan
nan nan nan
nan nan nan
nan nan nan
nan nan nan
nan nan nan
nan nan nan
nan nan nan
nan nan nan
nan nan nan
nan nan nan
nan nan nan
nan nan nan
nan nan nan
nan nan nan
nan nan nan
nan nan nan
nan nan nan
nan nan nan
nan nan nan
nan nan nan
nan nan nan
nan nan nan
nan nan nan
nan nan nan
nan nan nan
nan nan nan
nan nan nan
nan nan nan
nan nan nan
nan nan nan
nan nan nan
nan nan nan
nan nan nan
nan nan nan
nan nan nan
nan nan nan
nan nan nan
nan nan nan
nan nan nan
nan nan nan
nan nan nan
nan nan nan
nan nan nan
nan nan nan
nan nan nan
nan nan nan
nan nan nan
nan nan nan
nan nan nan
nan nan nan
nan nan nan
nan nan nan
nan nan nan
nan nan nan
nan nan nan
nan nan nan
nan nan nan
nan nan nan
nan nan nan
nan nan nan
nan nan nan
nan nan nan
nan nan nan
nan nan nan
nan nan nan
nan nan nan
nan nan nan
nan nan nan
nan nan nan
nan nan nan
nan nan nan
nan nan nan
nan nan nan
nan nan nan
nan nan nan
nan nan nan
nan nan nan
nan nan nan
nan nan nan
nan nan nan
nan nan nan
nan nan nan
nan nan nan
nan nan nan
nan nan nan
nan nan nan
nan nan nan
nan nan nan
nan nan nan
nan nan nan
nan nan nan
nan nan nan
nan nan nan
nan nan nan
nan nan nan
nan nan nan
nan nan nan
nan nan nan
nan nan nan
nan nan nan
nan nan nan
nan nan nan
nan nan nan
nan nan nan
nan nan nan
nan nan nan
nan nan nan
nan nan nan
nan nan nan
nan nan nan
nan nan nan
nan nan nan
nan nan nan
nan nan nan
nan nan nan
nan nan nan
nan nan nan
nan nan nan
nan nan nan
nan nan nan
nan nan nan
nan nan nan
nan nan nan
nan nan nan
nan nan nan
nan nan nan
nan nan nan
nan nan nan
nan nan nan
nan nan nan
nan nan nan
nan nan nan
nan nan nan
nan nan nan
nan nan nan
nan nan nan
nan nan nan
nan nan nan
nan nan nan
nan nan nan
nan nan nan
nan nan nan
nan nan nan
nan nan nan
nan nan nan
nan nan nan
nan nan nan
nan nan nan
nan nan nan
nan nan nan
nan nan nan
nan nan nan
nan nan nan
nan nan nan
nan nan nan
nan nan nan
nan nan nan
nan nan nan
nan nan nan
nan nan nan
nan nan nan
nan nan nan
nan nan nan
nan nan nan
nan nan nan
nan nan nan
nan nan nan
nan nan nan
nan nan nan
nan nan nan
nan nan nan
nan nan nan
nan nan nan
nan nan nan
nan nan nan
nan nan nan
nan nan nan
nan nan nan
nan nan nan
nan nan nan
nan nan nan
nan nan nan
nan nan nan
nan nan nan
nan nan nan
nan nan nan
nan nan nan
nan nan nan
nan nan nan
nan nan nan
nan nan nan
nan nan nan
nan nan nan
nan nan nan
nan nan nan
nan nan nan
nan nan nan
nan nan nan
nan nan nan
nan nan nan
nan nan nan
nan nan nan
nan nan nan
nan nan nan
nan nan nan
nan nan nan
nan nan nan
nan nan nan
nan nan nan
CELL_DATA 2180
SCALARS Stress float 1
LOOKUP_TABLE default
nan
nan
nan
nan
nan
nan
nan
nan
nan
nan
nan
nan
nan
nan
nan
nan
nan
nan
nan
nan
nan
nan
nan
nan
nan
nan
nan
nan
nan
nan
nan
nan
nan
nan
nan
nan
nan
nan
nan
nan
nan
nan
nan
nan
nan
nan
nan
nan
nan
nan
nan
nan
nan
nan
nan
nan
nan
nan
nan
nan
nan
nan
nan
nan
nan
nan
nan
nan
nan
nan
nan
nan
nan
nan
nan
nan
nan
nan
nan
nan
nan
nan
nan
nan
nan
nan
nan
nan
nan
nan
nan
nan
nan
nan
nan
nan
nan
nan
nan
nan
nan
nan
nan
nan
nan
nan
nan
nan
nan
nan
nan
nan
nan
nan
nan
nan
nan
nan
nan
nan
nan
nan
nan
nan
nan
nan
nan
nan
nan
nan
nan
nan
nan
nan
nan
nan
nan
nan
nan
nan
nan
nan
nan
nan
nan
nan
nan
nan
nan
nan
nan
nan
nan
nan
nan
nan
nan
nan
nan
nan
nan
nan
nan
nan
nan
nan
nan
nan
nan
nan
nan
nan
nan
nan
nan
nan
nan
nan
nan
nan
nan
nan
nan
nan
nan
nan
nan
nan
nan
nan
nan
nan
nan
nan
nan
nan
nan
nan
nan
nan
nan
nan
nan
nan
nan
nan
nan
nan
nan
nan
nan
nan
nan
nan
nan
nan
nan
nan
nan
nan
nan
nan
nan
nan
nan
nan
nan
nan
nan
nan
nan
nan
nan
nan
nan
nan
nan
nan
nan
nan
nan
nan
nan
nan
nan
nan
nan
nan
nan
nan
nan
nan
nan
nan
nan
nan
nan
nan
nan
nan
nan
nan
nan
nan
nan
nan
nan
nan
nan
nan
nan
nan
nan
nan
nan
nan
nan
nan
nan
nan
nan
nan
nan
nan
nan
nan
nan
nan
nan
nan
nan
nan
nan
nan
nan
nan
nan
nan
nan
nan
nan
nan
nan
nan
nan
nan
nan
nan
nan
nan
nan
nan
nan
nan
nan
nan
nan
nan
nan
nan
nan
nan
nan
nan
nan
nan
nan
nan
nan
nan
nan
nan
nan
nan
nan
nan
nan
nan
nan
nan
nan
nan
nan
nan
nan
nan
nan
nan
nan
nan
nan
nan
nan
nan
nan
nan
nan
nan
nan
nan
nan
nan
nan
nan
nan
nan
nan
nan
nan
nan
nan
nan
nan
nan
nan
nan
nan
nan
nan
nan
nan
nan
nan
nan
nan
nan
nan
nan
nan
nan
nan
nan
nan
nan
nan
nan
nan
nan
nan
nan
nan
nan
nan
nan
nan
nan
nan
nan
nan
nan
nan
nan
nan
nan
nan
nan
nan
nan
nan
nan
nan
nan
nan
nan
nan
nan
nan
nan
nan
nan
nan
nan
nan
nan
nan
nan
nan
nan
nan
nan
nan
nan
nan
nan
nan
nan
nan
nan
nan
nan
nan
nan
nan
nan
nan
nan
nan
nan
nan
nan
nan
nan
nan
nan
nan
nan
nan
nan
nan
nan
nan
nan
nan
nan
nan
nan
nan
nan
nan
nan
nan
nan
nan
nan
nan
nan
nan
nan
nan
nan
nan
nan
nan
nan
nan
nan
nan
nan
nan
nan
nan
nan
nan
nan
nan
nan
nan
nan
nan
nan
nan
nan
nan
nan
nan
nan
nan
nan
nan
nan
nan
nan
nan
nan
nan
nan
nan
nan
nan
nan
nan
nan
nan
nan
nan
nan
nan
nan
nan
nan
nan
nan
nan
nan
nan
nan
nan
nan
nan
nan
nan
nan
nan
nan
nan
nan
nan
nan
nan
nan
nan
nan
nan
nan
nan
nan
nan
nan
nan
nan
nan
nan
nan
nan
nan
nan
nan
nan
nan
nan
nan
nan
nan
nan
nan
nan
nan
nan
nan
nan
nan
nan
nan
nan
nan
nan
nan
nan
nan
nan
nan
nan
nan
nan
nan
nan
nan
nan
nan
nan
nan
nan
nan
nan
nan
nan
nan
nan
nan
nan
nan
nan
nan
nan
nan
nan
nan
nan
nan
nan
nan
nan
nan
nan
nan
nan
nan
nan
nan
nan
nan
nan
nan
nan
nan
nan
nan
nan
nan
nan
nan
nan
nan
nan
nan
nan
nan
nan
nan
nan
nan
nan
nan
nan
nan
nan
nan
nan
nan
nan
nan
nan
nan
nan
nan
nan
nan
nan
nan
nan
nan
nan
nan
nan
nan
nan
nan
nan
nan
nan
nan
nan
nan
nan
nan
nan
nan
nan
nan
nan
nan
nan
nan
nan
nan
nan
nan
nan
nan
nan
nan
nan
nan
nan
nan
nan
nan
nan
nan
nan
nan
nan
nan
nan
nan
nan
nan
nan
nan
nan
nan
nan
nan
nan
nan
nan
nan
nan
nan
nan
nan
nan
nan
nan
nan
nan
nan
nan
nan
nan
nan
nan
nan
nan
nan
nan
nan
nan
nan
nan
nan
nan
nan
nan
nan
nan
nan
nan
nan
nan
nan
nan
nan
nan
nan
nan
nan
nan
nan
nan
nan
nan
nan
nan
nan
nan
nan
nan
nan
nan
nan
nan
nan
nan
nan
nan
nan
nan
nan
nan
nan
nan
nan
nan
nan
nan
nan
nan
nan
nan
nan
nan
nan
nan
nan
nan
nan
nan
nan
nan
nan
nan
nan
nan
nan
nan
nan
nan
nan
nan
nan
nan
nan
nan
nan
nan
nan
nan
nan
nan
nan
nan
nan
nan
nan
nan
nan
nan
nan
nan
nan
nan
nan
nan
nan
nan
nan
nan
nan
nan
nan
nan
nan
nan
nan
nan
nan
nan
nan
nan
nan
nan
nan
nan
nan
nan
nan
nan
nan
nan
nan
nan
nan
nan
nan
nan
nan
nan
nan
nan
nan
nan
nan
nan
nan
nan
nan
nan
nan
nan
nan
nan
nan
nan
nan
nan
nan
nan
nan
nan
nan
nan
nan
nan
nan
nan
nan
nan
nan
nan
nan
nan
nan
nan
nan
nan
nan
nan
nan
nan
nan
nan
nan
nan
nan
nan
nan
nan
nan
nan
nan
nan
nan
nan
nan
nan
nan
nan
nan
nan
nan
nan
nan
nan
nan
nan
nan
nan
nan
nan
nan
nan
nan
nan
nan
nan
nan
nan
nan
nan
nan
nan
nan
nan
nan
nan
nan
nan
nan
nan
nan
nan
nan
nan
nan
nan
nan
nan
nan
nan
nan
nan
nan
nan
nan
nan
nan
nan
nan
nan
nan
nan
nan
nan
nan
nan
nan
nan
nan
nan
nan
nan
nan
nan
nan
nan
nan
nan
nan
nan
nan
nan
nan
nan
nan
nan
nan
nan
nan
nan
nan
nan
nan
nan
nan
nan
nan
nan
nan
nan
nan
nan
nan
nan
nan
nan
nan
nan
nan
nan
nan
nan
nan
nan
nan
nan
nan
nan
nan
nan
nan
nan
nan
nan
nan
nan
nan
nan
nan
nan
nan
nan
nan
nan
nan
nan
nan
nan
nan
nan
nan
nan
nan
nan
nan
nan
nan
nan
nan
nan
nan
nan
nan
nan
nan
nan
nan
nan
nan
nan
nan
nan
nan
nan
nan
nan
nan
nan
nan
nan
nan
nan
nan
nan
nan
nan
nan
nan
nan
nan
nan
nan
nan
nan
nan
nan
nan
nan
nan
nan
nan
nan
nan
nan
nan
nan
nan
nan
nan
nan
nan
nan
nan
nan
nan
nan
nan
nan
nan
nan
nan
nan
nan
nan
nan
nan
nan
nan
nan
nan
nan
nan
nan
nan
nan
nan
nan
nan
nan
nan
nan
nan
nan
nan
nan
nan
nan
nan
nan
nan
nan
nan
nan
nan
nan
nan
nan
nan
nan
nan
nan
nan
nan
nan
nan
nan
nan
nan
nan
nan
nan
nan
nan
nan
nan
nan
nan
nan
nan
nan
nan
nan
nan
nan
nan
nan
nan
nan
nan
nan
nan
nan
nan
nan
nan
nan
nan
nan
nan
nan
nan
nan
nan
nan
nan
nan
nan
nan
nan
nan
nan
nan
nan
nan
nan
nan
nan
nan
nan
nan
nan
nan
nan
nan
nan
nan
nan
nan
nan
nan
nan
nan
nan
nan
nan
nan
nan
nan
nan
nan
nan
nan
nan
nan
nan
nan
nan
nan
nan
nan
nan
nan
nan
nan
nan
nan
nan
nan
nan
nan
nan
nan
nan
nan
nan
nan
nan
nan
nan
nan
nan
nan
nan
nan
nan
nan
nan
nan
nan
nan
nan
nan
nan
nan
nan
nan
nan
nan
nan
nan
nan
nan
nan
nan
nan
nan
nan
nan
nan
nan
nan
nan
nan
nan
nan
nan
nan
nan
nan
nan
nan
nan
nan
nan
nan
nan
nan
nan
nan
nan
nan
nan
nan
nan
nan
nan
nan
nan
nan
nan
nan
nan
nan
nan
nan
nan
nan
nan
nan
nan
nan
nan
nan
nan
nan
nan
nan
nan
nan
nan
nan
nan
nan
nan
nan
nan
nan
nan
nan
nan
nan
nan
nan
nan
nan
nan
nan
nan
nan
nan
nan
nan
nan
nan
nan
nan
nan
nan
nan
nan
nan
nan
nan
nan
nan
nan
nan
nan
nan
nan
nan
nan
nan
nan
nan
nan
nan
nan
nan
nan
nan
nan
nan
nan
nan
nan
nan
nan
nan
nan
nan
nan
nan
nan
nan
nan
nan
nan
nan
nan
nan
nan
nan
nan
nan
nan
nan
nan
nan
nan
nan
nan
nan
nan
nan
nan
nan
nan
nan
nan
nan
nan
nan
nan
nan
nan
nan
nan
nan
nan
nan
nan
nan
nan
nan
nan
nan
nan
nan
nan
nan
nan
nan
nan
nan
nan
nan
nan
nan
nan
nan
nan
nan
nan
nan
nan
nan
nan
nan
nan
nan
nan
nan
nan
nan
nan
nan
nan
nan
nan
nan
nan
nan
nan
nan
nan
nan
nan
nan
nan
nan
nan
nan
nan
nan
nan
nan
nan
nan
nan
nan
nan
nan
nan
nan
nan
nan
nan
nan
nan
nan
nan
nan
nan
nan
nan
nan
nan
nan
nan
nan
nan
nan
nan
nan
nan
nan
nan
nan
nan
nan
nan
nan
nan
nan
nan
nan
nan
nan
nan
nan
nan
nan
nan
nan
nan
nan
nan
nan
nan
nan
nan
nan
nan
nan
nan
nan
nan
nan
nan
nan
nan
nan
nan
nan
nan
nan
nan
nan
nan
nan
nan
nan
nan
nan
nan
nan
nan
nan
nan
nan
nan
nan
nan
nan
nan
nan
nan
nan
nan
nan
nan
nan
nan
nan
nan
nan
nan
nan
nan
nan
nan
nan
nan
nan
nan
nan
nan
nan
nan
nan
nan
nan
nan
nan
nan
nan
nan
nan
nan
nan
nan
nan
nan
nan
nan
nan
nan
nan
nan
nan
nan
nan
nan
nan
nan
nan
nan
nan
nan
nan
nan
nan
nan
nan
nan
nan
nan
nan
nan
nan
nan
nan
nan
nan
nan
nan
nan
nan
nan
nan
nan
nan
nan
nan
nan
nan
nan
nan
nan
nan
nan
nan
nan
nan
nan
nan
nan
nan
nan
nan
nan
nan
nan
nan
nan
nan
nan
nan
nan
nan
nan
nan
nan
nan
nan
nan
nan
nan
nan
nan
nan
nan
nan
nan
nan
nan
nan
nan
nan
nan
nan
nan
nan
nan
nan
nan
nan
nan
nan
nan
nan
nan
nan
nan
nan
nan
nan
nan
nan
nan
nan
nan
nan
nan
nan
nan
nan
nan
nan
nan
nan
nan
nan
nan
nan
nan
nan
nan
nan
nan
nan
nan
nan
nan
nan
nan
nan
nan
nan
nan
nan
nan
nan
nan
nan
nan
nan
nan
nan
nan
nan
nan
nan
nan
nan
nan
nan
nan
nan
nan
nan
nan
nan
nan
nan
nan
nan
nan
nan
nan
nan
nan
nan
nan
nan
nan
nan
nan
nan
nan
nan
nan
nan
nan
nan
nan
nan
nan
nan
nan
nan
nan
nan
nan
nan
nan
nan
nan
nan
nan
nan
nan
nan
nan
nan
nan
nan
nan
nan
nan
nan
nan
nan
nan
nan
nan
nan
nan
nan
nan
nan
nan
nan
nan
nan
nan
nan
nan
nan
nan
nan
nan
nan
nan
nan
nan
nan
nan
nan
nan
nan
nan
nan
nan
nan
nan
nan
nan
nan
nan
nan
nan
nan
nan
nan
nan
nan
nan
nan
nan
nan
nan
nan
nan
nan
nan
nan
nan
nan
nan
nan
nan
nan
nan
nan
nan
nan
nan
nan
nan
nan
nan
nan
nan
nan
nan
nan
nan
nan
nan
nan
nan
nan
nan
nan
nan
nan
nan
nan
nan
nan
nan
nan
nan
nan
nan
nan
nan
nan
nan
nan
nan
nan
nan
nan
nan
nan
nan
nan
nan
nan
nan
nan
nan
nan
nan
nan
nan
nan
nan
nan
nan
nan
nan
nan
nan
nan
nan
nan
nan
nan
nan
nan
nan
nan
nan
nan
nan
nan
nan
nan
nan
nan
nan
nan
nan
nan
nan
nan
nan
nan
nan
nan
nan
nan
nan
nan
nan
nan
nan
nan
nan
nan
nan
nan
nan
nan
nan
nan
nan
nan
nan
nan
nan
nan
nan
nan
nan
nan
nan
nan
nan
nan
nan
nan
nan
nan
nan
nan
nan
nan
nan
nan
nan
nan
nan
nan
nan
nan
nan
nan
nan
nan
nan
nan
nan
nan
nan
nan
nan
nan
nan
nan
nan
nan
nan
nan
nan
nan
nan
nan
nan
nan
nan
nan
nan
nan
nan
nan
nan
nan
nan
nan
nan
nan
nan
nan
nan
nan
nan
nan
nan
nan
nan
nan
nan
nan
nan
nan
nan
nan
nan
nan
nan
nan
nan
nan
nan
nan
nan
nan
nan
nan
nan
nan
nan
nan
nan
nan
nan
nan
nan
nan
nan
nan
nan
nan
nan
nan
nan
nan
nan
nan
nan
nan
nan
nan
nan
nan
0
0
0
0
0
0
0
0
0
0
0
0
0
0
0
0
0
0
0
0
0
0
0
0
0
0
0
0
0
0
0
0
0
0
0
0
0
0
0
0
0
0
0
0
0
0
0
0
0
0
0
0
0
0
0
0
0
0
0
0
0
0
0
0
0
0
0
0
0
0
0
0
0
0
0
0
0
0
0
0
0
0
0
0
0
0
0
0
0
0
0
0
0
0
0
0
0
0
0
0
0
0
0
0
0
0
0
0
0
0
0
0
0
0
0
0
0
0
0
0
0
0
0
0
0
0
0
0
0
0
0
0
0
0
0
0
0
0
0
0
0
0
0
0
0
0
0
0
0
0
0
0
0
0
0
0
0
0
0
0
0
0
0
0
0
0
0
0
0
0
0
0
0
0
0
0
0
0
0
0
0
0
0
0
0
0
0
0
0
0
0
0
0
0
0
0
0
0
0
0
0
0
0
0
0
0
0
0
0
0
0
0
0
0
0
0
0
0
0
0
0
0
0
0
0
0
0
0
0
0
0
0
0
0
0
0
0
0
0
0
0
0
0
0
0
0
0
0
0
0
0
0
0
0
0
0
0
0
0
0
0
0
0
0
0
0
0
0
0
0
0
0
0
0
0
0
0
0
0
0
0
0
0
0
0
0
0
0
0
0
0
0
0
0
0
0
0
0
0
0
0
0
0
0
0
0
0
0
0
0
0
0
0
0
0
0
0
0
0
0
0
0
0
0
0
0
0
0
0
0
0
0
0
0
0
0
0
0
0
0
0
0
0
0
0
0
0
0
0
0
0
0
0
0
0
0
0
0
0
0
0
0
0
0
0
0
0
0
0
0
0
0
0
0
0
0
0
0
0
0
0
0
0
0
0
0
0
0
0
0
0
0
0
0
0
0
0
0
0
0
0
0
0
0
0
0
0
0
0
0
0
0
0
0
0
0
0
0
0
0
0
0
0
0
0
0
0
0
0
0
0
0
0
0
0
0
0
0
0
0
0
0
0
0
0
0
0
0
0
0
0
0
0
0
0
0
0
0
0
0
0
0
0
0
0
0
0
0
0
0
0
0
0
0
0
0
0
0
0
0
0
0
0
0
0
0
0
0
0
0
0
0
0
0
0
0
0
0
0
0
0
0
0
0
0
0
0
0
0
0
0
0
0
0
0
0
0
0
0
0
0
0
0
0
0
0
0
0
0
0
0
0
0
0
0
0
0
0
0
0
0
0
0
0
0
0
0
0
0
0
0
0
0
0
0
0
0
0
0
0
0
0
0
0
0
0
0
0
0
0
0
0
0
0
0
0
0
0
0
0
0
0
0
0
0
0
0
0
0
0
0
0
0
0
0
0
0
0
0
0
0
0
0
0
0
0
0
0
0
0
0
0
0
0
0
0
0
0
0
0
0
0
0
0
0
0
0
0
0
0
0
0
0
0
0
0
0
0
0
0
0
0
0
0
0
0
0
0
0
0
0
0
0
0
0
0
0
0
0
0
0
0
0
0
0
0
0
0
0
0
0
0
0
0
0
0
0
0
0
0
0
0
0
0
0
0
0
0
0
0
0
0
0
0
0
0
0
0
0
0
0
0
0
0
nan
nan
nan
nan
nan
nan
nan
nan
nan
nan
nan
nan
nan
nan
nan
nan
nan
nan
nan
nan
