# vtk DataFile Version 3.0
STAP++ Results
ASCII
DATASET UNSTRUCTURED_GRID
POINTS 4085 float
200 -10 0
200 10 0
150 10 0
150 -10 0
100 10 0
100 -10 0
50 10 0
50 -10 0
0 10 0
0 -10 0
-50 10 0
-50 -10 0
-100 10 0
-100 -10 0
-150 10 0
-150 -10 0
-200 10 0
-200 -10 0
-250 10 0
-250 -10 0
250 -10 0
250 10 0
200 -5 0
200 0 0
200 5 0
195 10 0
190 10 0
185 10 0
180 10 0
175 10 0
170 10 0
165 10 0
160 10 0
155 10 0
150 5 0
150 0 0
150 -5 0
155 -10 0
160 -10 0
165 -10 0
170 -10 0
175 -10 0
180 -10 0
185 -10 0
190 -10 0
195 -10 0
145 10 0
140 10 0
135 10 0
130 10 0
125 10 0
120 10 0
115 10 0
110 10 0
105 10 0
100 5 0
100 0 0
100 -5 0
105 -10 0
110 -10 0
115 -10 0
120 -10 0
125 -10 0
130 -10 0
135 -10 0
140 -10 0
145 -10 0
95 10 0
90 10 0
85 10 0
80 10 0
75 10 0
70 10 0
65 10 0
60 10 0
55 10 0
50 5 0
50 0 0
50 -5 0
55 -10 0
60 -10 0
65 -10 0
70 -10 0
75 -10 0
80 -10 0
85 -10 0
90 -10 0
95 -10 0
45 10 0
40 10 0
35 10 0
30 10 0
25 10 0
20 10 0
15 10 0
10 10 0
5 10 0
0 5 0
0 0 0
0 -5 0
5 -10 0
10 -10 0
15 -10 0
20 -10 0
25 -10 0
30 -10 0
35 -10 0
40 -10 0
45 -10 0
-5 10 0
-10 10 0
-15 10 0
-20 10 0
-25 10 0
-30 10 0
-35 10 0
-40 10 0
-45 10 0
-50 5 0
-50 0 0
-50 -5 0
-45 -10 0
-40 -10 0
-35 -10 0
-30 -10 0
-25 -10 0
-20 -10 0
-15 -10 0
-10 -10 0
-5 -10 0
-55 10 0
-60 10 0
-65 10 0
-70 10 0
-75 10 0
-80 10 0
-85 10 0
-90 10 0
-95 10 0
-100 5 0
-100 0 0
-100 -5 0
-95 -10 0
-90 -10 0
-85 -10 0
-80 -10 0
-75 -10 0
-70 -10 0
-65 -10 0
-60 -10 0
-55 -10 0
-105 10 0
-110 10 0
-115 10 0
-120 10 0
-125 10 0
-130 10 0
-135 10 0
-140 10 0
-145 10 0
-150 5 0
-150 0 0
-150 -5 0
-145 -10 0
-140 -10 0
-135 -10 0
-130 -10 0
-125 -10 0
-120 -10 0
-115 -10 0
-110 -10 0
-105 -10 0
-155 10 0
-160 10 0
-165 10 0
-170 10 0
-175 10 0
-180 10 0
-185 10 0
-190 10 0
-195 10 0
-200 5 0
-200 0 0
-200 -5 0
-195 -10 0
-190 -10 0
-185 -10 0
-180 -10 0
-175 -10 0
-170 -10 0
-165 -10 0
-160 -10 0
-155 -10 0
-205 10 0
-210 10 0
-215 10 0
-220 10 0
-225 10 0
-230 10 0
-235 10 0
-240 10 0
-245 10 0
-250 5 0
-250 0 0
-250 -5 0
-245 -10 0
-240 -10 0
-235 -10 0
-230 -10 0
-225 -10 0
-220 -10 0
-215 -10 0
-210 -10 0
-205 -10 0
205 -10 0
210 -10 0
215 -10 0
220 -10 0
225 -10 0
230 -10 0
235 -10 0
240 -10 0
245 -10 0
250 -5 0
250 0 0
250 5 0
245 10 0
240 10 0
235 10 0
230 10 0
225 10 0
220 10 0
215 10 0
210 10 0
205 10 0
195 -5 0
195 0 0
195 5 0
190 -5 0
190 0 0
190 5 0
185 -5 0
185 0 0
185 5 0
180 -5 0
180 0 0
180 5 0
175 -5 0
175 0 0
175 5 0
170 -5 0
170 0 0
170 5 0
165 -5 0
165 0 0
165 5 0
160 -5 0
160 0 0
160 5 0
155 -5 0
155 0 0
155 5 0
145 -5 0
145 0 0
145 5 0
140 -5 0
140 0 0
140 5 0
135 -5 0
135 0 0
135 5 0
130 -5 0
130 0 0
130 5 0
125 -5 0
125 0 0
125 5 0
120 -5 0
120 0 0
120 5 0
115 -5 0
115 0 0
115 5 0
110 -5 0
110 0 0
110 5 0
105 -5 0
105 0 0
105 5 0
95 -5 0
95 0 0
95 5 0
90 -5 0
90 0 0
90 5 0
85 -5 0
85 0 0
85 5 0
80 -5 0
80 0 0
80 5 0
75 -5 0
75 0 0
75 5 0
70 -5 0
70 0 0
70 5 0
65 -5 0
65 0 0
65 5 0
60 -5 0
60 0 0
60 5 0
55 -5 0
55 0 0
55 5 0
45 -5 0
45 0 0
45 5 0
40 -5 0
40 0 0
40 5 0
35 -5 0
35 0 0
35 5 0
30 -5 0
30 0 0
30 5 0
25 -5 0
25 0 0
25 5 0
20 -5 0
20 0 0
20 5 0
15 -5 0
15 0 0
15 5 0
10 -5 0
10 0 0
10 5 0
5 -5 0
5 0 0
5 5 0
-5 -5 0
-5 0 0
-5 5 0
-10 -5 0
-10 0 0
-10 5 0
-15 -5 0
-15 0 0
-15 5 0
-20 -5 0
-20 0 0
-20 5 0
-25 -5 0
-25 0 0
-25 5 0
-30 -5 0
-30 0 0
-30 5 0
-35 -5 0
-35 0 0
-35 5 0
-40 -5 0
-40 0 0
-40 5 0
-45 -5 0
-45 0 0
-45 5 0
-55 -5 0
-55 0 0
-55 5 0
-60 -5 0
-60 0 0
-60 5 0
-65 -5 0
-65 0 0
-65 5 0
-70 -5 0
-70 0 0
-70 5 0
-75 -5 0
-75 0 0
-75 5 0
-80 -5 0
-80 0 0
-80 5 0
-85 -5 0
-85 0 0
-85 5 0
-90 -5 0
-90 0 0
-90 5 0
-95 -5 0
-95 0 0
-95 5 0
-105 -5 0
-105 0 0
-105 5 0
-110 -5 0
-110 0 0
-110 5 0
-115 -5 0
-115 0 0
-115 5 0
-120 -5 0
-120 0 0
-120 5 0
-125 -5 0
-125 0 0
-125 5 0
-130 -5 0
-130 0 0
-130 5 0
-135 -5 0
-135 0 0
-135 5 0
-140 -5 0
-140 0 0
-140 5 0
-145 -5 0
-145 0 0
-145 5 0
-155 -5 0
-155 0 0
-155 5 0
-160 -5 0
-160 0 0
-160 5 0
-165 -5 0
-165 0 0
-165 5 0
-170 -5 0
-170 0 0
-170 5 0
-175 -5 0
-175 0 0
-175 5 0
-180 -5 0
-180 0 0
-180 5 0
-185 -5 0
-185 0 0
-185 5 0
-190 -5 0
-190 0 0
-190 5 0
-195 -5 0
-195 0 0
-195 5 0
-205 -5 0
-205 0 0
-205 5 0
-210 -5 0
-210 0 0
-210 5 0
-215 -5 0
-215 0 0
-215 5 0
-220 -5 0
-220 0 0
-220 5 0
-225 -5 0
-225 0 0
-225 5 0
-230 -5 0
-230 0 0
-230 5 0
-235 -5 0
-235 0 0
-235 5 0
-240 -5 0
-240 0 0
-240 5 0
-245 -5 0
-245 0 0
-245 5 0
205 5 0
205 0 0
205 -5 0
210 5 0
210 0 0
210 -5 0
215 5 0
215 0 0
215 -5 0
220 5 0
220 0 0
220 -5 0
225 5 0
225 0 0
225 -5 0
230 5 0
230 0 0
230 -5 0
235 5 0
235 0 0
235 -5 0
240 5 0
240 0 0
240 -5 0
245 5 0
245 0 0
245 -5 0
0 -10 -50
0 -20 -50
-20 -20 -50
-20 -10 -50
0 -20 150
-10 -20 150
-10 -10 150
0 -10 150
20 -10 -50
20 -20 -50
10 -10 150
10 -20 150
0 -15 -50
-6.66667 -20 -50
-13.3333 -20 -50
-20 -15 -50
-13.3333 -10 -50
-6.66667 -10 -50
0 -15 150
-6.66667 -20 150
-3.33333 -20 150
-10 -15 150
-3.33333 -10 150
-6.66667 -10 150
-19.75 -10 -45
-19.5 -10 -40
-19.25 -10 -35
-19 -10 -30
-18.75 -10 -25
-18.5 -10 -20
-18.25 -10 -15
-18 -10 -10
-17.75 -10 -5
-17.5 -10 0
-17.25 -10 5
-17 -10 10
-16.75 -10 15
-16.5 -10 20
-16.25 -10 25
-16 -10 30
-15.75 -10 35
-15.5 -10 40
-15.25 -10 45
-15 -10 50
-14.75 -10 55
-14.5 -10 60
-14.25 -10 65
-14 -10 70
-13.75 -10 75
-13.5 -10 80
-13.25 -10 85
-13 -10 90
-12.75 -10 95
-12.5 -10 100
-12.25 -10 105
-12 -10 110
-11.75 -10 115
-11.5 -10 120
-11.25 -10 125
-11 -10 130
-10.75 -10 135
-10.5 -10 140
-10.25 -10 145
0 -10 145
0 -10 140
0 -10 135
0 -10 130
0 -10 125
0 -10 120
0 -10 115
0 -10 110
0 -10 105
0 -10 100
0 -10 95
0 -10 90
0 -10 85
0 -10 80
0 -10 75
0 -10 70
0 -10 65
0 -10 60
0 -10 55
0 -10 50
0 -10 45
0 -10 40
0 -10 35
0 -10 30
0 -10 25
0 -10 20
0 -10 15
0 -10 10
0 -10 5
0 -10 -5
0 -10 -10
0 -10 -15
0 -10 -20
0 -10 -25
0 -10 -30
0 -10 -35
0 -10 -40
0 -10 -45
-10.25 -20 145
-10.5 -20 140
-10.75 -20 135
-11 -20 130
-11.25 -20 125
-11.5 -20 120
-11.75 -20 115
-12 -20 110
-12.25 -20 105
-12.5 -20 100
-12.75 -20 95
-13 -20 90
-13.25 -20 85
-13.5 -20 80
-13.75 -20 75
-14 -20 70
-14.25 -20 65
-14.5 -20 60
-14.75 -20 55
-15 -20 50
-15.25 -20 45
-15.5 -20 40
-15.75 -20 35
-16 -20 30
-16.25 -20 25
-16.5 -20 20
-16.75 -20 15
-17 -20 10
-17.25 -20 5
-17.5 -20 0
-17.75 -20 -5
-18 -20 -10
-18.25 -20 -15
-18.5 -20 -20
-18.75 -20 -25
-19 -20 -30
-19.25 -20 -35
-19.5 -20 -40
-19.75 -20 -45
0 -20 -45
0 -20 -40
0 -20 -35
0 -20 -30
0 -20 -25
0 -20 -20
0 -20 -15
0 -20 -10
0 -20 -5
0 -20 0
0 -20 5
0 -20 10
0 -20 15
0 -20 20
0 -20 25
0 -20 30
0 -20 35
0 -20 40
0 -20 45
0 -20 50
0 -20 55
0 -20 60
0 -20 65
0 -20 70
0 -20 75
0 -20 80
0 -20 85
0 -20 90
0 -20 95
0 -20 100
0 -20 105
0 -20 110
0 -20 115
0 -20 120
0 -20 125
0 -20 130
0 -20 135
0 -20 140
0 -20 145
6.66667 -10 -50
13.3333 -10 -50
20 -15 -50
13.3333 -20 -50
6.66667 -20 -50
6.66667 -10 150
3.33333 -10 150
10 -15 150
3.33333 -20 150
6.66667 -20 150
19.75 -20 -45
19.5 -20 -40
19.25 -20 -35
19 -20 -30
18.75 -20 -25
18.5 -20 -20
18.25 -20 -15
18 -20 -10
17.75 -20 -5
17.5 -20 0
17.25 -20 5
17 -20 10
16.75 -20 15
16.5 -20 20
16.25 -20 25
16 -20 30
15.75 -20 35
15.5 -20 40
15.25 -20 45
15 -20 50
14.75 -20 55
14.5 -20 60
14.25 -20 65
14 -20 70
13.75 -20 75
13.5 -20 80
13.25 -20 85
13 -20 90
12.75 -20 95
12.5 -20 100
12.25 -20 105
12 -20 110
11.75 -20 115
11.5 -20 120
11.25 -20 125
11 -20 130
10.75 -20 135
10.5 -20 140
10.25 -20 145
10.25 -10 145
10.5 -10 140
10.75 -10 135
11 -10 130
11.25 -10 125
11.5 -10 120
11.75 -10 115
12 -10 110
12.25 -10 105
12.5 -10 100
12.75 -10 95
13 -10 90
13.25 -10 85
13.5 -10 80
13.75 -10 75
14 -10 70
14.25 -10 65
14.5 -10 60
14.75 -10 55
15 -10 50
15.25 -10 45
15.5 -10 40
15.75 -10 35
16 -10 30
16.25 -10 25
16.5 -10 20
16.75 -10 15
17 -10 10
17.25 -10 5
17.5 -10 0
17.75 -10 -5
18 -10 -10
18.25 -10 -15
18.5 -10 -20
18.75 -10 -25
19 -10 -30
19.25 -10 -35
19.5 -10 -40
19.75 -10 -45
-6.66667 -15 -50
-13.3333 -15 -50
-3.33333 -15 150
-6.66667 -15 150
-6.58333 -10 -45
-13.1667 -10 -45
-6.5 -10 -40
-13 -10 -40
-6.41667 -10 -35
-12.8333 -10 -35
-6.33333 -10 -30
-12.6667 -10 -30
-6.25 -10 -25
-12.5 -10 -25
-6.16667 -10 -20
-12.3333 -10 -20
-6.08333 -10 -15
-12.1667 -10 -15
-6 -10 -10
-12 -10 -10
-5.91667 -10 -5
-11.8333 -10 -5
-5.83333 -10 0
-11.6667 -10 0
-5.75 -10 5
-11.5 -10 5
-5.66667 -10 10
-11.3333 -10 10
-5.58333 -10 15
-11.1667 -10 15
-5.5 -10 20
-11 -10 20
-5.41667 -10 25
-10.8333 -10 25
-5.33333 -10 30
-10.6667 -10 30
-5.25 -10 35
-10.5 -10 35
-5.16667 -10 40
-10.3333 -10 40
-5.08333 -10 45
-10.1667 -10 45
-5 -10 50
-10 -10 50
-4.91667 -10 55
-9.83333 -10 55
-4.83333 -10 60
-9.66667 -10 60
-4.75 -10 65
-9.5 -10 65
-4.66667 -10 70
-9.33333 -10 70
-4.58333 -10 75
-9.16667 -10 75
-4.5 -10 80
-9 -10 80
-4.41667 -10 85
-8.83333 -10 85
-4.33333 -10 90
-8.66667 -10 90
-4.25 -10 95
-8.5 -10 95
-4.16667 -10 100
-8.33333 -10 100
-4.08333 -10 105
-8.16667 -10 105
-4 -10 110
-8 -10 110
-3.91667 -10 115
-7.83333 -10 115
-3.83333 -10 120
-7.66667 -10 120
-3.75 -10 125
-7.5 -10 125
-3.66667 -10 130
-7.33333 -10 130
-3.58333 -10 135
-7.16667 -10 135
-3.5 -10 140
-7 -10 140
-3.41667 -10 145
-6.83333 -10 145
-6.58333 -20 -45
-13.1667 -20 -45
-6.5 -20 -40
-13 -20 -40
-6.41667 -20 -35
-12.8333 -20 -35
-6.33333 -20 -30
-12.6667 -20 -30
-6.25 -20 -25
-12.5 -20 -25
-6.16667 -20 -20
-12.3333 -20 -20
-6.08333 -20 -15
-12.1667 -20 -15
-6 -20 -10
-12 -20 -10
-5.91667 -20 -5
-11.8333 -20 -5
-5.83333 -20 0
-11.6667 -20 0
-5.75 -20 5
-11.5 -20 5
-5.66667 -20 10
-11.3333 -20 10
-5.58333 -20 15
-11.1667 -20 15
-5.5 -20 20
-11 -20 20
-5.41667 -20 25
-10.8333 -20 25
-5.33333 -20 30
-10.6667 -20 30
-5.25 -20 35
-10.5 -20 35
-5.16667 -20 40
-10.3333 -20 40
-5.08333 -20 45
-10.1667 -20 45
-5 -20 50
-10 -20 50
-4.91667 -20 55
-9.83333 -20 55
-4.83333 -20 60
-9.66667 -20 60
-4.75 -20 65
-9.5 -20 65
-4.66667 -20 70
-9.33333 -20 70
-4.58333 -20 75
-9.16667 -20 75
-4.5 -20 80
-9 -20 80
-4.41667 -20 85
-8.83333 -20 85
-4.33333 -20 90
-8.66667 -20 90
-4.25 -20 95
-8.5 -20 95
-4.16667 -20 100
-8.33333 -20 100
-4.08333 -20 105
-8.16667 -20 105
-4 -20 110
-8 -20 110
-3.91667 -20 115
-7.83333 -20 115
-3.83333 -20 120
-7.66667 -20 120
-3.75 -20 125
-7.5 -20 125
-3.66667 -20 130
-7.33333 -20 130
-3.58333 -20 135
-7.16667 -20 135
-3.5 -20 140
-7 -20 140
-3.41667 -20 145
-6.83333 -20 145
0 -15 -45
0 -15 -40
0 -15 -35
0 -15 -30
0 -15 -25
0 -15 -20
0 -15 -15
0 -15 -10
0 -15 -5
0 -15 0
0 -15 5
0 -15 10
0 -15 15
0 -15 20
0 -15 25
0 -15 30
0 -15 35
0 -15 40
0 -15 45
0 -15 50
0 -15 55
0 -15 60
0 -15 65
0 -15 70
0 -15 75
0 -15 80
0 -15 85
0 -15 90
0 -15 95
0 -15 100
0 -15 105
0 -15 110
0 -15 115
0 -15 120
0 -15 125
0 -15 130
0 -15 135
0 -15 140
0 -15 145
-19.75 -15 -45
-19.5 -15 -40
-19.25 -15 -35
-19 -15 -30
-18.75 -15 -25
-18.5 -15 -20
-18.25 -15 -15
-18 -15 -10
-17.75 -15 -5
-17.5 -15 0
-17.25 -15 5
-17 -15 10
-16.75 -15 15
-16.5 -15 20
-16.25 -15 25
-16 -15 30
-15.75 -15 35
-15.5 -15 40
-15.25 -15 45
-15 -15 50
-14.75 -15 55
-14.5 -15 60
-14.25 -15 65
-14 -15 70
-13.75 -15 75
-13.5 -15 80
-13.25 -15 85
-13 -15 90
-12.75 -15 95
-12.5 -15 100
-12.25 -15 105
-12 -15 110
-11.75 -15 115
-11.5 -15 120
-11.25 -15 125
-11 -15 130
-10.75 -15 135
-10.5 -15 140
-10.25 -15 145
6.66667 -15 -50
13.3333 -15 -50
3.33333 -15 150
6.66667 -15 150
6.58333 -20 -45
13.1667 -20 -45
6.5 -20 -40
13 -20 -40
6.41667 -20 -35
12.8333 -20 -35
6.33333 -20 -30
12.6667 -20 -30
6.25 -20 -25
12.5 -20 -25
6.16667 -20 -20
12.3333 -20 -20
6.08333 -20 -15
12.1667 -20 -15
6 -20 -10
12 -20 -10
5.91667 -20 -5
11.8333 -20 -5
5.83333 -20 0
11.6667 -20 0
5.75 -20 5
11.5 -20 5
5.66667 -20 10
11.3333 -20 10
5.58333 -20 15
11.1667 -20 15
5.5 -20 20
11 -20 20
5.41667 -20 25
10.8333 -20 25
5.33333 -20 30
10.6667 -20 30
5.25 -20 35
10.5 -20 35
5.16667 -20 40
10.3333 -20 40
5.08333 -20 45
10.1667 -20 45
5 -20 50
10 -20 50
4.91667 -20 55
9.83333 -20 55
4.83333 -20 60
9.66667 -20 60
4.75 -20 65
9.5 -20 65
4.66667 -20 70
9.33333 -20 70
4.58333 -20 75
9.16667 -20 75
4.5 -20 80
9 -20 80
4.41667 -20 85
8.83333 -20 85
4.33333 -20 90
8.66667 -20 90
4.25 -20 95
8.5 -20 95
4.16667 -20 100
8.33333 -20 100
4.08333 -20 105
8.16667 -20 105
4 -20 110
8 -20 110
3.91667 -20 115
7.83333 -20 115
3.83333 -20 120
7.66667 -20 120
3.75 -20 125
7.5 -20 125
3.66667 -20 130
7.33333 -20 130
3.58333 -20 135
7.16667 -20 135
3.5 -20 140
7 -20 140
3.41667 -20 145
6.83333 -20 145
6.58333 -10 -45
13.1667 -10 -45
6.5 -10 -40
13 -10 -40
6.41667 -10 -35
12.8333 -10 -35
6.33333 -10 -30
12.6667 -10 -30
6.25 -10 -25
12.5 -10 -25
6.16667 -10 -20
12.3333 -10 -20
6.08333 -10 -15
12.1667 -10 -15
6 -10 -10
12 -10 -10
5.91667 -10 -5
11.8333 -10 -5
5.83333 -10 0
11.6667 -10 0
5.75 -10 5
11.5 -10 5
5.66667 -10 10
11.3333 -10 10
5.58333 -10 15
11.1667 -10 15
5.5 -10 20
11 -10 20
5.41667 -10 25
10.8333 -10 25
5.33333 -10 30
10.6667 -10 30
5.25 -10 35
10.5 -10 35
5.16667 -10 40
10.3333 -10 40
5.08333 -10 45
10.1667 -10 45
5 -10 50
10 -10 50
4.91667 -10 55
9.83333 -10 55
4.83333 -10 60
9.66667 -10 60
4.75 -10 65
9.5 -10 65
4.66667 -10 70
9.33333 -10 70
4.58333 -10 75
9.16667 -10 75
4.5 -10 80
9 -10 80
4.41667 -10 85
8.83333 -10 85
4.33333 -10 90
8.66667 -10 90
4.25 -10 95
8.5 -10 95
4.16667 -10 100
8.33333 -10 100
4.08333 -10 105
8.16667 -10 105
4 -10 110
8 -10 110
3.91667 -10 115
7.83333 -10 115
3.83333 -10 120
7.66667 -10 120
3.75 -10 125
7.5 -10 125
3.66667 -10 130
7.33333 -10 130
3.58333 -10 135
7.16667 -10 135
3.5 -10 140
7 -10 140
3.41667 -10 145
6.83333 -10 145
19.75 -15 -45
19.5 -15 -40
19.25 -15 -35
19 -15 -30
18.75 -15 -25
18.5 -15 -20
18.25 -15 -15
18 -15 -10
17.75 -15 -5
17.5 -15 0
17.25 -15 5
17 -15 10
16.75 -15 15
16.5 -15 20
16.25 -15 25
16 -15 30
15.75 -15 35
15.5 -15 40
15.25 -15 45
15 -15 50
14.75 -15 55
14.5 -15 60
14.25 -15 65
14 -15 70
13.75 -15 75
13.5 -15 80
13.25 -15 85
13 -15 90
12.75 -15 95
12.5 -15 100
12.25 -15 105
12 -15 110
11.75 -15 115
11.5 -15 120
11.25 -15 125
11 -15 130
10.75 -15 135
10.5 -15 140
10.25 -15 145
-6.58333 -15 -45
-13.1667 -15 -45
-6.5 -15 -40
-13 -15 -40
-6.41667 -15 -35
-12.8333 -15 -35
-6.33333 -15 -30
-12.6667 -15 -30
-6.25 -15 -25
-12.5 -15 -25
-6.16667 -15 -20
-12.3333 -15 -20
-6.08333 -15 -15
-12.1667 -15 -15
-6 -15 -10
-12 -15 -10
-5.91667 -15 -5
-11.8333 -15 -5
-5.83333 -15 0
-11.6667 -15 0
-5.75 -15 5
-11.5 -15 5
-5.66667 -15 10
-11.3333 -15 10
-5.58333 -15 15
-11.1667 -15 15
-5.5 -15 20
-11 -15 20
-5.41667 -15 25
-10.8333 -15 25
-5.33333 -15 30
-10.6667 -15 30
-5.25 -15 35
-10.5 -15 35
-5.16667 -15 40
-10.3333 -15 40
-5.08333 -15 45
-10.1667 -15 45
-5 -15 50
-10 -15 50
-4.91667 -15 55
-9.83333 -15 55
-4.83333 -15 60
-9.66667 -15 60
-4.75 -15 65
-9.5 -15 65
-4.66667 -15 70
-9.33333 -15 70
-4.58333 -15 75
-9.16667 -15 75
-4.5 -15 80
-9 -15 80
-4.41667 -15 85
-8.83333 -15 85
-4.33333 -15 90
-8.66667 -15 90
-4.25 -15 95
-8.5 -15 95
-4.16667 -15 100
-8.33333 -15 100
-4.08333 -15 105
-8.16667 -15 105
-4 -15 110
-8 -15 110
-3.91667 -15 115
-7.83333 -15 115
-3.83333 -15 120
-7.66667 -15 120
-3.75 -15 125
-7.5 -15 125
-3.66667 -15 130
-7.33333 -15 130
-3.58333 -15 135
-7.16667 -15 135
-3.5 -15 140
-7 -15 140
-3.41667 -15 145
-6.83333 -15 145
6.58333 -15 -45
13.1667 -15 -45
6.5 -15 -40
13 -15 -40
6.41667 -15 -35
12.8333 -15 -35
6.33333 -15 -30
12.6667 -15 -30
6.25 -15 -25
12.5 -15 -25
6.16667 -15 -20
12.3333 -15 -20
6.08333 -15 -15
12.1667 -15 -15
6 -15 -10
12 -15 -10
5.91667 -15 -5
11.8333 -15 -5
5.83333 -15 0
11.6667 -15 0
5.75 -15 5
11.5 -15 5
5.66667 -15 10
11.3333 -15 10
5.58333 -15 15
11.1667 -15 15
5.5 -15 20
11 -15 20
5.41667 -15 25
10.8333 -15 25
5.33333 -15 30
10.6667 -15 30
5.25 -15 35
10.5 -15 35
5.16667 -15 40
10.3333 -15 40
5.08333 -15 45
10.1667 -15 45
5 -15 50
10 -15 50
4.91667 -15 55
9.83333 -15 55
4.83333 -15 60
9.66667 -15 60
4.75 -15 65
9.5 -15 65
4.66667 -15 70
9.33333 -15 70
4.58333 -15 75
9.16667 -15 75
4.5 -15 80
9 -15 80
4.41667 -15 85
8.83333 -15 85
4.33333 -15 90
8.66667 -15 90
4.25 -15 95
8.5 -15 95
4.16667 -15 100
8.33333 -15 100
4.08333 -15 105
8.16667 -15 105
4 -15 110
8 -15 110
3.91667 -15 115
7.83333 -15 115
3.83333 -15 120
7.66667 -15 120
3.75 -15 125
7.5 -15 125
3.66667 -15 130
7.33333 -15 130
3.58333 -15 135
7.16667 -15 135
3.5 -15 140
7 -15 140
3.41667 -15 145
6.83333 -15 145
0 20 -50
0 10 -50
-20 10 -50
-20 20 -50
0 10 150
-10 10 150
-10 20 150
0 20 150
20 20 -50
20 10 -50
10 20 150
10 10 150
0 15 -50
-6.66667 10 -50
-13.3333 10 -50
-20 15 -50
-13.3333 20 -50
-6.66667 20 -50
0 15 150
-6.66667 10 150
-3.33333 10 150
-10 15 150
-3.33333 20 150
-6.66667 20 150
-19.75 20 -45
-19.5 20 -40
-19.25 20 -35
-19 20 -30
-18.75 20 -25
-18.5 20 -20
-18.25 20 -15
-18 20 -10
-17.75 20 -5
-17.5 20 0
-17.25 20 5
-17 20 10
-16.75 20 15
-16.5 20 20
-16.25 20 25
-16 20 30
-15.75 20 35
-15.5 20 40
-15.25 20 45
-15 20 50
-14.75 20 55
-14.5 20 60
-14.25 20 65
-14 20 70
-13.75 20 75
-13.5 20 80
-13.25 20 85
-13 20 90
-12.75 20 95
-12.5 20 100
-12.25 20 105
-12 20 110
-11.75 20 115
-11.5 20 120
-11.25 20 125
-11 20 130
-10.75 20 135
-10.5 20 140
-10.25 20 145
0 20 145
0 20 140
0 20 135
0 20 130
0 20 125
0 20 120
0 20 115
0 20 110
0 20 105
0 20 100
0 20 95
0 20 90
0 20 85
0 20 80
0 20 75
0 20 70
0 20 65
0 20 60
0 20 55
0 20 50
0 20 45
0 20 40
0 20 35
0 20 30
0 20 25
0 20 20
0 20 15
0 20 10
0 20 5
0 20 0
0 20 -5
0 20 -10
0 20 -15
0 20 -20
0 20 -25
0 20 -30
0 20 -35
0 20 -40
0 20 -45
-10.25 10 145
-10.5 10 140
-10.75 10 135
-11 10 130
-11.25 10 125
-11.5 10 120
-11.75 10 115
-12 10 110
-12.25 10 105
-12.5 10 100
-12.75 10 95
-13 10 90
-13.25 10 85
-13.5 10 80
-13.75 10 75
-14 10 70
-14.25 10 65
-14.5 10 60
-14.75 10 55
-15 10 50
-15.25 10 45
-15.5 10 40
-15.75 10 35
-16 10 30
-16.25 10 25
-16.5 10 20
-16.75 10 15
-17 10 10
-17.25 10 5
-17.5 10 0
-17.75 10 -5
-18 10 -10
-18.25 10 -15
-18.5 10 -20
-18.75 10 -25
-19 10 -30
-19.25 10 -35
-19.5 10 -40
-19.75 10 -45
0 10 -45
0 10 -40
0 10 -35
0 10 -30
0 10 -25
0 10 -20
0 10 -15
0 10 -10
0 10 -5
0 10 5
0 10 10
0 10 15
0 10 20
0 10 25
0 10 30
0 10 35
0 10 40
0 10 45
0 10 50
0 10 55
0 10 60
0 10 65
0 10 70
0 10 75
0 10 80
0 10 85
0 10 90
0 10 95
0 10 100
0 10 105
0 10 110
0 10 115
0 10 120
0 10 125
0 10 130
0 10 135
0 10 140
0 10 145
6.66667 20 -50
13.3333 20 -50
20 15 -50
13.3333 10 -50
6.66667 10 -50
6.66667 20 150
3.33333 20 150
10 15 150
3.33333 10 150
6.66667 10 150
19.75 10 -45
19.5 10 -40
19.25 10 -35
19 10 -30
18.75 10 -25
18.5 10 -20
18.25 10 -15
18 10 -10
17.75 10 -5
17.5 10 0
17.25 10 5
17 10 10
16.75 10 15
16.5 10 20
16.25 10 25
16 10 30
15.75 10 35
15.5 10 40
15.25 10 45
15 10 50
14.75 10 55
14.5 10 60
14.25 10 65
14 10 70
13.75 10 75
13.5 10 80
13.25 10 85
13 10 90
12.75 10 95
12.5 10 100
12.25 10 105
12 10 110
11.75 10 115
11.5 10 120
11.25 10 125
11 10 130
10.75 10 135
10.5 10 140
10.25 10 145
10.25 20 145
10.5 20 140
10.75 20 135
11 20 130
11.25 20 125
11.5 20 120
11.75 20 115
12 20 110
12.25 20 105
12.5 20 100
12.75 20 95
13 20 90
13.25 20 85
13.5 20 80
13.75 20 75
14 20 70
14.25 20 65
14.5 20 60
14.75 20 55
15 20 50
15.25 20 45
15.5 20 40
15.75 20 35
16 20 30
16.25 20 25
16.5 20 20
16.75 20 15
17 20 10
17.25 20 5
17.5 20 0
17.75 20 -5
18 20 -10
18.25 20 -15
18.5 20 -20
18.75 20 -25
19 20 -30
19.25 20 -35
19.5 20 -40
19.75 20 -45
-6.66667 15 -50
-13.3333 15 -50
-3.33333 15 150
-6.66667 15 150
-6.58333 20 -45
-13.1667 20 -45
-6.5 20 -40
-13 20 -40
-6.41667 20 -35
-12.8333 20 -35
-6.33333 20 -30
-12.6667 20 -30
-6.25 20 -25
-12.5 20 -25
-6.16667 20 -20
-12.3333 20 -20
-6.08333 20 -15
-12.1667 20 -15
-6 20 -10
-12 20 -10
-5.91667 20 -5
-11.8333 20 -5
-5.83333 20 0
-11.6667 20 0
-5.75 20 5
-11.5 20 5
-5.66667 20 10
-11.3333 20 10
-5.58333 20 15
-11.1667 20 15
-5.5 20 20
-11 20 20
-5.41667 20 25
-10.8333 20 25
-5.33333 20 30
-10.6667 20 30
-5.25 20 35
-10.5 20 35
-5.16667 20 40
-10.3333 20 40
-5.08333 20 45
-10.1667 20 45
-5 20 50
-10 20 50
-4.91667 20 55
-9.83333 20 55
-4.83333 20 60
-9.66667 20 60
-4.75 20 65
-9.5 20 65
-4.66667 20 70
-9.33333 20 70
-4.58333 20 75
-9.16667 20 75
-4.5 20 80
-9 20 80
-4.41667 20 85
-8.83333 20 85
-4.33333 20 90
-8.66667 20 90
-4.25 20 95
-8.5 20 95
-4.16667 20 100
-8.33333 20 100
-4.08333 20 105
-8.16667 20 105
-4 20 110
-8 20 110
-3.91667 20 115
-7.83333 20 115
-3.83333 20 120
-7.66667 20 120
-3.75 20 125
-7.5 20 125
-3.66667 20 130
-7.33333 20 130
-3.58333 20 135
-7.16667 20 135
-3.5 20 140
-7 20 140
-3.41667 20 145
-6.83333 20 145
-6.58333 10 -45
-13.1667 10 -45
-6.5 10 -40
-13 10 -40
-6.41667 10 -35
-12.8333 10 -35
-6.33333 10 -30
-12.6667 10 -30
-6.25 10 -25
-12.5 10 -25
-6.16667 10 -20
-12.3333 10 -20
-6.08333 10 -15
-12.1667 10 -15
-6 10 -10
-12 10 -10
-5.91667 10 -5
-11.8333 10 -5
-5.83333 10 0
-11.6667 10 0
-5.75 10 5
-11.5 10 5
-5.66667 10 10
-11.3333 10 10
-5.58333 10 15
-11.1667 10 15
-5.5 10 20
-11 10 20
-5.41667 10 25
-10.8333 10 25
-5.33333 10 30
-10.6667 10 30
-5.25 10 35
-10.5 10 35
-5.16667 10 40
-10.3333 10 40
-5.08333 10 45
-10.1667 10 45
-5 10 50
-10 10 50
-4.91667 10 55
-9.83333 10 55
-4.83333 10 60
-9.66667 10 60
-4.75 10 65
-9.5 10 65
-4.66667 10 70
-9.33333 10 70
-4.58333 10 75
-9.16667 10 75
-4.5 10 80
-9 10 80
-4.41667 10 85
-8.83333 10 85
-4.33333 10 90
-8.66667 10 90
-4.25 10 95
-8.5 10 95
-4.16667 10 100
-8.33333 10 100
-4.08333 10 105
-8.16667 10 105
-4 10 110
-8 10 110
-3.91667 10 115
-7.83333 10 115
-3.83333 10 120
-7.66667 10 120
-3.75 10 125
-7.5 10 125
-3.66667 10 130
-7.33333 10 130
-3.58333 10 135
-7.16667 10 135
-3.5 10 140
-7 10 140
-3.41667 10 145
-6.83333 10 145
0 15 -45
0 15 -40
0 15 -35
0 15 -30
0 15 -25
0 15 -20
0 15 -15
0 15 -10
0 15 -5
0 15 0
0 15 5
0 15 10
0 15 15
0 15 20
0 15 25
0 15 30
0 15 35
0 15 40
0 15 45
0 15 50
0 15 55
0 15 60
0 15 65
0 15 70
0 15 75
0 15 80
0 15 85
0 15 90
0 15 95
0 15 100
0 15 105
0 15 110
0 15 115
0 15 120
0 15 125
0 15 130
0 15 135
0 15 140
0 15 145
-19.75 15 -45
-19.5 15 -40
-19.25 15 -35
-19 15 -30
-18.75 15 -25
-18.5 15 -20
-18.25 15 -15
-18 15 -10
-17.75 15 -5
-17.5 15 0
-17.25 15 5
-17 15 10
-16.75 15 15
-16.5 15 20
-16.25 15 25
-16 15 30
-15.75 15 35
-15.5 15 40
-15.25 15 45
-15 15 50
-14.75 15 55
-14.5 15 60
-14.25 15 65
-14 15 70
-13.75 15 75
-13.5 15 80
-13.25 15 85
-13 15 90
-12.75 15 95
-12.5 15 100
-12.25 15 105
-12 15 110
-11.75 15 115
-11.5 15 120
-11.25 15 125
-11 15 130
-10.75 15 135
-10.5 15 140
-10.25 15 145
6.66667 15 -50
13.3333 15 -50
3.33333 15 150
6.66667 15 150
6.58333 10 -45
13.1667 10 -45
6.5 10 -40
13 10 -40
6.41667 10 -35
12.8333 10 -35
6.33333 10 -30
12.6667 10 -30
6.25 10 -25
12.5 10 -25
6.16667 10 -20
12.3333 10 -20
6.08333 10 -15
12.1667 10 -15
6 10 -10
12 10 -10
5.91667 10 -5
11.8333 10 -5
5.83333 10 0
11.6667 10 0
5.75 10 5
11.5 10 5
5.66667 10 10
11.3333 10 10
5.58333 10 15
11.1667 10 15
5.5 10 20
11 10 20
5.41667 10 25
10.8333 10 25
5.33333 10 30
10.6667 10 30
5.25 10 35
10.5 10 35
5.16667 10 40
10.3333 10 40
5.08333 10 45
10.1667 10 45
5 10 50
10 10 50
4.91667 10 55
9.83333 10 55
4.83333 10 60
9.66667 10 60
4.75 10 65
9.5 10 65
4.66667 10 70
9.33333 10 70
4.58333 10 75
9.16667 10 75
4.5 10 80
9 10 80
4.41667 10 85
8.83333 10 85
4.33333 10 90
8.66667 10 90
4.25 10 95
8.5 10 95
4.16667 10 100
8.33333 10 100
4.08333 10 105
8.16667 10 105
4 10 110
8 10 110
3.91667 10 115
7.83333 10 115
3.83333 10 120
7.66667 10 120
3.75 10 125
7.5 10 125
3.66667 10 130
7.33333 10 130
3.58333 10 135
7.16667 10 135
3.5 10 140
7 10 140
3.41667 10 145
6.83333 10 145
6.58333 20 -45
13.1667 20 -45
6.5 20 -40
13 20 -40
6.41667 20 -35
12.8333 20 -35
6.33333 20 -30
12.6667 20 -30
6.25 20 -25
12.5 20 -25
6.16667 20 -20
12.3333 20 -20
6.08333 20 -15
12.1667 20 -15
6 20 -10
12 20 -10
5.91667 20 -5
11.8333 20 -5
5.83333 20 0
11.6667 20 0
5.75 20 5
11.5 20 5
5.66667 20 10
11.3333 20 10
5.58333 20 15
11.1667 20 15
5.5 20 20
11 20 20
5.41667 20 25
10.8333 20 25
5.33333 20 30
10.6667 20 30
5.25 20 35
10.5 20 35
5.16667 20 40
10.3333 20 40
5.08333 20 45
10.1667 20 45
5 20 50
10 20 50
4.91667 20 55
9.83333 20 55
4.83333 20 60
9.66667 20 60
4.75 20 65
9.5 20 65
4.66667 20 70
9.33333 20 70
4.58333 20 75
9.16667 20 75
4.5 20 80
9 20 80
4.41667 20 85
8.83333 20 85
4.33333 20 90
8.66667 20 90
4.25 20 95
8.5 20 95
4.16667 20 100
8.33333 20 100
4.08333 20 105
8.16667 20 105
4 20 110
8 20 110
3.91667 20 115
7.83333 20 115
3.83333 20 120
7.66667 20 120
3.75 20 125
7.5 20 125
3.66667 20 130
7.33333 20 130
3.58333 20 135
7.16667 20 135
3.5 20 140
7 20 140
3.41667 20 145
6.83333 20 145
19.75 15 -45
19.5 15 -40
19.25 15 -35
19 15 -30
18.75 15 -25
18.5 15 -20
18.25 15 -15
18 15 -10
17.75 15 -5
17.5 15 0
17.25 15 5
17 15 10
16.75 15 15
16.5 15 20
16.25 15 25
16 15 30
15.75 15 35
15.5 15 40
15.25 15 45
15 15 50
14.75 15 55
14.5 15 60
14.25 15 65
14 15 70
13.75 15 75
13.5 15 80
13.25 15 85
13 15 90
12.75 15 95
12.5 15 100
12.25 15 105
12 15 110
11.75 15 115
11.5 15 120
11.25 15 125
11 15 130
10.75 15 135
10.5 15 140
10.25 15 145
-6.58333 15 -45
-13.1667 15 -45
-6.5 15 -40
-13 15 -40
-6.41667 15 -35
-12.8333 15 -35
-6.33333 15 -30
-12.6667 15 -30
-6.25 15 -25
-12.5 15 -25
-6.16667 15 -20
-12.3333 15 -20
-6.08333 15 -15
-12.1667 15 -15
-6 15 -10
-12 15 -10
-5.91667 15 -5
-11.8333 15 -5
-5.83333 15 0
-11.6667 15 0
-5.75 15 5
-11.5 15 5
-5.66667 15 10
-11.3333 15 10
-5.58333 15 15
-11.1667 15 15
-5.5 15 20
-11 15 20
-5.41667 15 25
-10.8333 15 25
-5.33333 15 30
-10.6667 15 30
-5.25 15 35
-10.5 15 35
-5.16667 15 40
-10.3333 15 40
-5.08333 15 45
-10.1667 15 45
-5 15 50
-10 15 50
-4.91667 15 55
-9.83333 15 55
-4.83333 15 60
-9.66667 15 60
-4.75 15 65
-9.5 15 65
-4.66667 15 70
-9.33333 15 70
-4.58333 15 75
-9.16667 15 75
-4.5 15 80
-9 15 80
-4.41667 15 85
-8.83333 15 85
-4.33333 15 90
-8.66667 15 90
-4.25 15 95
-8.5 15 95
-4.16667 15 100
-8.33333 15 100
-4.08333 15 105
-8.16667 15 105
-4 15 110
-8 15 110
-3.91667 15 115
-7.83333 15 115
-3.83333 15 120
-7.66667 15 120
-3.75 15 125
-7.5 15 125
-3.66667 15 130
-7.33333 15 130
-3.58333 15 135
-7.16667 15 135
-3.5 15 140
-7 15 140
-3.41667 15 145
-6.83333 15 145
6.58333 15 -45
13.1667 15 -45
6.5 15 -40
13 15 -40
6.41667 15 -35
12.8333 15 -35
6.33333 15 -30
12.6667 15 -30
6.25 15 -25
12.5 15 -25
6.16667 15 -20
12.3333 15 -20
6.08333 15 -15
12.1667 15 -15
6 15 -10
12 15 -10
5.91667 15 -5
11.8333 15 -5
5.83333 15 0
11.6667 15 0
5.75 15 5
11.5 15 5
5.66667 15 10
11.3333 15 10
5.58333 15 15
11.1667 15 15
5.5 15 20
11 15 20
5.41667 15 25
10.8333 15 25
5.33333 15 30
10.6667 15 30
5.25 15 35
10.5 15 35
5.16667 15 40
10.3333 15 40
5.08333 15 45
10.1667 15 45
5 15 50
10 15 50
4.91667 15 55
9.83333 15 55
4.83333 15 60
9.66667 15 60
4.75 15 65
9.5 15 65
4.66667 15 70
9.33333 15 70
4.58333 15 75
9.16667 15 75
4.5 15 80
9 15 80
4.41667 15 85
8.83333 15 85
4.33333 15 90
8.66667 15 90
4.25 15 95
8.5 15 95
4.16667 15 100
8.33333 15 100
4.08333 15 105
8.16667 15 105
4 15 110
8 15 110
3.91667 15 115
7.83333 15 115
3.83333 15 120
7.66667 15 120
3.75 15 125
7.5 15 125
3.66667 15 130
7.33333 15 130
3.58333 15 135
7.16667 15 135
3.5 15 140
7 15 140
3.41667 15 145
6.83333 15 145
-300 10 -30
-300 -10 -30
-300 -10 0
-300 10 0
-250 -10 -30
-250 10 -30
-300 10 -50
-300 -10 -50
-250 10 -50
-250 -10 -50
-300 5 -30
-300 0 -30
-300 -5 -30
-300 -10 -25
-300 -10 -20
-300 -10 -15
-300 -10 -10
-300 -10 -5
-300 -5 0
-300 0 0
-300 5 0
-300 10 -5
-300 10 -10
-300 10 -15
-300 10 -20
-300 10 -25
-250 -5 -30
-250 0 -30
-250 5 -30
-250 -10 -5
-250 -10 -10
-250 -10 -15
-250 -10 -20
-250 -10 -25
-250 10 -25
-250 10 -20
-250 10 -15
-250 10 -10
-250 10 -5
-295 10 0
-290 10 0
-285 10 0
-280 10 0
-275 10 0
-270 10 0
-265 10 0
-260 10 0
-255 10 0
-255 10 -30
-260 10 -30
-265 10 -30
-270 10 -30
-275 10 -30
-280 10 -30
-285 10 -30
-290 10 -30
-295 10 -30
-255 -10 0
-260 -10 0
-265 -10 0
-270 -10 0
-275 -10 0
-280 -10 0
-285 -10 0
-290 -10 0
-295 -10 0
-295 -10 -30
-290 -10 -30
-285 -10 -30
-280 -10 -30
-275 -10 -30
-270 -10 -30
-265 -10 -30
-260 -10 -30
-255 -10 -30
-300 10 -35
-300 10 -40
-300 10 -45
-300 5 -50
-300 0 -50
-300 -5 -50
-300 -10 -45
-300 -10 -40
-300 -10 -35
-250 10 -45
-250 10 -40
-250 10 -35
-250 -5 -50
-250 0 -50
-250 5 -50
-250 -10 -35
-250 -10 -40
-250 -10 -45
-295 -10 -50
-290 -10 -50
-285 -10 -50
-280 -10 -50
-275 -10 -50
-270 -10 -50
-265 -10 -50
-260 -10 -50
-255 -10 -50
-255 10 -50
-260 10 -50
-265 10 -50
-270 10 -50
-275 10 -50
-280 10 -50
-285 10 -50
-290 10 -50
-295 10 -50
-300 5 -25
-300 0 -25
-300 -5 -25
-300 5 -20
-300 0 -20
-300 -5 -20
-300 5 -15
-300 0 -15
-300 -5 -15
-300 5 -10
-300 0 -10
-300 -5 -10
-300 5 -5
-300 0 -5
-300 -5 -5
-250 5 -25
-250 0 -25
-250 -5 -25
-250 5 -20
-250 0 -20
-250 -5 -20
-250 5 -15
-250 0 -15
-250 -5 -15
-250 5 -10
-250 0 -10
-250 -5 -10
-250 5 -5
-250 0 -5
-250 -5 -5
-295 10 -25
-295 10 -20
-295 10 -15
-295 10 -10
-295 10 -5
-290 10 -25
-290 10 -20
-290 10 -15
-290 10 -10
-290 10 -5
-285 10 -25
-285 10 -20
-285 10 -15
-285 10 -10
-285 10 -5
-280 10 -25
-280 10 -20
-280 10 -15
-280 10 -10
-280 10 -5
-275 10 -25
-275 10 -20
-275 10 -15
-275 10 -10
-275 10 -5
-270 10 -25
-270 10 -20
-270 10 -15
-270 10 -10
-270 10 -5
-265 10 -25
-265 10 -20
-265 10 -15
-265 10 -10
-265 10 -5
-260 10 -25
-260 10 -20
-260 10 -15
-260 10 -10
-260 10 -5
-255 10 -25
-255 10 -20
-255 10 -15
-255 10 -10
-255 10 -5
-295 -10 -25
-295 -10 -20
-295 -10 -15
-295 -10 -10
-295 -10 -5
-290 -10 -25
-290 -10 -20
-290 -10 -15
-290 -10 -10
-290 -10 -5
-285 -10 -25
-285 -10 -20
-285 -10 -15
-285 -10 -10
-285 -10 -5
-280 -10 -25
-280 -10 -20
-280 -10 -15
-280 -10 -10
-280 -10 -5
-275 -10 -25
-275 -10 -20
-275 -10 -15
-275 -10 -10
-275 -10 -5
-270 -10 -25
-270 -10 -20
-270 -10 -15
-270 -10 -10
-270 -10 -5
-265 -10 -25
-265 -10 -20
-265 -10 -15
-265 -10 -10
-265 -10 -5
-260 -10 -25
-260 -10 -20
-260 -10 -15
-260 -10 -10
-260 -10 -5
-255 -10 -25
-255 -10 -20
-255 -10 -15
-255 -10 -10
-255 -10 -5
-295 5 -30
-295 0 -30
-295 -5 -30
-290 5 -30
-290 0 -30
-290 -5 -30
-285 5 -30
-285 0 -30
-285 -5 -30
-280 5 -30
-280 0 -30
-280 -5 -30
-275 5 -30
-275 0 -30
-275 -5 -30
-270 5 -30
-270 0 -30
-270 -5 -30
-265 5 -30
-265 0 -30
-265 -5 -30
-260 5 -30
-260 0 -30
-260 -5 -30
-255 5 -30
-255 0 -30
-255 -5 -30
-295 5 0
-295 0 0
-295 -5 0
-290 5 0
-290 0 0
-290 -5 0
-285 5 0
-285 0 0
-285 -5 0
-280 5 0
-280 0 0
-280 -5 0
-275 5 0
-275 0 0
-275 -5 0
-270 5 0
-270 0 0
-270 -5 0
-265 5 0
-265 0 0
-265 -5 0
-260 5 0
-260 0 0
-260 -5 0
-255 5 0
-255 0 0
-255 -5 0
-300 -5 -35
-300 0 -35
-300 5 -35
-300 -5 -40
-300 0 -40
-300 5 -40
-300 -5 -45
-300 0 -45
-300 5 -45
-250 -5 -35
-250 0 -35
-250 5 -35
-250 -5 -40
-250 0 -40
-250 5 -40
-250 -5 -45
-250 0 -45
-250 5 -45
-295 -10 -35
-295 -10 -40
-295 -10 -45
-290 -10 -35
-290 -10 -40
-290 -10 -45
-285 -10 -35
-285 -10 -40
-285 -10 -45
-280 -10 -35
-280 -10 -40
-280 -10 -45
-275 -10 -35
-275 -10 -40
-275 -10 -45
-270 -10 -35
-270 -10 -40
-270 -10 -45
-265 -10 -35
-265 -10 -40
-265 -10 -45
-260 -10 -35
-260 -10 -40
-260 -10 -45
-255 -10 -35
-255 -10 -40
-255 -10 -45
-295 10 -35
-295 10 -40
-295 10 -45
-290 10 -35
-290 10 -40
-290 10 -45
-285 10 -35
-285 10 -40
-285 10 -45
-280 10 -35
-280 10 -40
-280 10 -45
-275 10 -35
-275 10 -40
-275 10 -45
-270 10 -35
-270 10 -40
-270 10 -45
-265 10 -35
-265 10 -40
-265 10 -45
-260 10 -35
-260 10 -40
-260 10 -45
-255 10 -35
-255 10 -40
-255 10 -45
-295 -5 -50
-295 0 -50
-295 5 -50
-290 -5 -50
-290 0 -50
-290 5 -50
-285 -5 -50
-285 0 -50
-285 5 -50
-280 -5 -50
-280 0 -50
-280 5 -50
-275 -5 -50
-275 0 -50
-275 5 -50
-270 -5 -50
-270 0 -50
-270 5 -50
-265 -5 -50
-265 0 -50
-265 5 -50
-260 -5 -50
-260 0 -50
-260 5 -50
-255 -5 -50
-255 0 -50
-255 5 -50
-295 5 -25
-295 0 -25
-295 -5 -25
-295 5 -20
-295 0 -20
-295 -5 -20
-295 5 -15
-295 0 -15
-295 -5 -15
-295 5 -10
-295 0 -10
-295 -5 -10
-295 5 -5
-295 0 -5
-295 -5 -5
-290 5 -25
-290 0 -25
-290 -5 -25
-290 5 -20
-290 0 -20
-290 -5 -20
-290 5 -15
-290 0 -15
-290 -5 -15
-290 5 -10
-290 0 -10
-290 -5 -10
-290 5 -5
-290 0 -5
-290 -5 -5
-285 5 -25
-285 0 -25
-285 -5 -25
-285 5 -20
-285 0 -20
-285 -5 -20
-285 5 -15
-285 0 -15
-285 -5 -15
-285 5 -10
-285 0 -10
-285 -5 -10
-285 5 -5
-285 0 -5
-285 -5 -5
-280 5 -25
-280 0 -25
-280 -5 -25
-280 5 -20
-280 0 -20
-280 -5 -20
-280 5 -15
-280 0 -15
-280 -5 -15
-280 5 -10
-280 0 -10
-280 -5 -10
-280 5 -5
-280 0 -5
-280 -5 -5
-275 5 -25
-275 0 -25
-275 -5 -25
-275 5 -20
-275 0 -20
-275 -5 -20
-275 5 -15
-275 0 -15
-275 -5 -15
-275 5 -10
-275 0 -10
-275 -5 -10
-275 5 -5
-275 0 -5
-275 -5 -5
-270 5 -25
-270 0 -25
-270 -5 -25
-270 5 -20
-270 0 -20
-270 -5 -20
-270 5 -15
-270 0 -15
-270 -5 -15
-270 5 -10
-270 0 -10
-270 -5 -10
-270 5 -5
-270 0 -5
-270 -5 -5
-265 5 -25
-265 0 -25
-265 -5 -25
-265 5 -20
-265 0 -20
-265 -5 -20
-265 5 -15
-265 0 -15
-265 -5 -15
-265 5 -10
-265 0 -10
-265 -5 -10
-265 5 -5
-265 0 -5
-265 -5 -5
-260 5 -25
-260 0 -25
-260 -5 -25
-260 5 -20
-260 0 -20
-260 -5 -20
-260 5 -15
-260 0 -15
-260 -5 -15
-260 5 -10
-260 0 -10
-260 -5 -10
-260 5 -5
-260 0 -5
-260 -5 -5
-255 5 -25
-255 0 -25
-255 -5 -25
-255 5 -20
-255 0 -20
-255 -5 -20
-255 5 -15
-255 0 -15
-255 -5 -15
-255 5 -10
-255 0 -10
-255 -5 -10
-255 5 -5
-255 0 -5
-255 -5 -5
-295 -5 -35
-295 0 -35
-295 5 -35
-295 -5 -40
-295 0 -40
-295 5 -40
-295 -5 -45
-295 0 -45
-295 5 -45
-290 -5 -35
-290 0 -35
-290 5 -35
-290 -5 -40
-290 0 -40
-290 5 -40
-290 -5 -45
-290 0 -45
-290 5 -45
-285 -5 -35
-285 0 -35
-285 5 -35
-285 -5 -40
-285 0 -40
-285 5 -40
-285 -5 -45
-285 0 -45
-285 5 -45
-280 -5 -35
-280 0 -35
-280 5 -35
-280 -5 -40
-280 0 -40
-280 5 -40
-280 -5 -45
-280 0 -45
-280 5 -45
-275 -5 -35
-275 0 -35
-275 5 -35
-275 -5 -40
-275 0 -40
-275 5 -40
-275 -5 -45
-275 0 -45
-275 5 -45
-270 -5 -35
-270 0 -35
-270 5 -35
-270 -5 -40
-270 0 -40
-270 5 -40
-270 -5 -45
-270 0 -45
-270 5 -45
-265 -5 -35
-265 0 -35
-265 5 -35
-265 -5 -40
-265 0 -40
-265 5 -40
-265 -5 -45
-265 0 -45
-265 5 -45
-260 -5 -35
-260 0 -35
-260 5 -35
-260 -5 -40
-260 0 -40
-260 5 -40
-260 -5 -45
-260 0 -45
-260 5 -45
-255 -5 -35
-255 0 -35
-255 5 -35
-255 -5 -40
-255 0 -40
-255 5 -40
-255 -5 -45
-255 0 -45
-255 5 -45
250 10 -30
250 -10 -30
300 -10 -30
300 -10 0
300 10 0
300 10 -30
250 10 -50
250 -10 -50
300 10 -50
300 -10 -50
250 5 -30
250 0 -30
250 -5 -30
250 -10 -25
250 -10 -20
250 -10 -15
250 -10 -10
250 -10 -5
250 10 -5
250 10 -10
250 10 -15
250 10 -20
250 10 -25
300 -5 -30
300 0 -30
300 5 -30
300 -10 -5
300 -10 -10
300 -10 -15
300 -10 -20
300 -10 -25
300 5 0
300 0 0
300 -5 0
300 10 -25
300 10 -20
300 10 -15
300 10 -10
300 10 -5
255 10 0
260 10 0
265 10 0
270 10 0
275 10 0
280 10 0
285 10 0
290 10 0
295 10 0
295 10 -30
290 10 -30
285 10 -30
280 10 -30
275 10 -30
270 10 -30
265 10 -30
260 10 -30
255 10 -30
295 -10 0
290 -10 0
285 -10 0
280 -10 0
275 -10 0
270 -10 0
265 -10 0
260 -10 0
255 -10 0
255 -10 -30
260 -10 -30
265 -10 -30
270 -10 -30
275 -10 -30
280 -10 -30
285 -10 -30
290 -10 -30
295 -10 -30
250 10 -35
250 10 -40
250 10 -45
250 5 -50
250 0 -50
250 -5 -50
250 -10 -45
250 -10 -40
250 -10 -35
300 10 -45
300 10 -40
300 10 -35
300 -5 -50
300 0 -50
300 5 -50
300 -10 -35
300 -10 -40
300 -10 -45
255 -10 -50
260 -10 -50
265 -10 -50
270 -10 -50
275 -10 -50
280 -10 -50
285 -10 -50
290 -10 -50
295 -10 -50
295 10 -50
290 10 -50
285 10 -50
280 10 -50
275 10 -50
270 10 -50
265 10 -50
260 10 -50
255 10 -50
250 5 -25
250 0 -25
250 -5 -25
250 5 -20
250 0 -20
250 -5 -20
250 5 -15
250 0 -15
250 -5 -15
250 5 -10
250 0 -10
250 -5 -10
250 5 -5
250 0 -5
250 -5 -5
300 5 -25
300 0 -25
300 -5 -25
300 5 -20
300 0 -20
300 -5 -20
300 5 -15
300 0 -15
300 -5 -15
300 5 -10
300 0 -10
300 -5 -10
300 5 -5
300 0 -5
300 -5 -5
255 10 -25
255 10 -20
255 10 -15
255 10 -10
255 10 -5
260 10 -25
260 10 -20
260 10 -15
260 10 -10
260 10 -5
265 10 -25
265 10 -20
265 10 -15
265 10 -10
265 10 -5
270 10 -25
270 10 -20
270 10 -15
270 10 -10
270 10 -5
275 10 -25
275 10 -20
275 10 -15
275 10 -10
275 10 -5
280 10 -25
280 10 -20
280 10 -15
280 10 -10
280 10 -5
285 10 -25
285 10 -20
285 10 -15
285 10 -10
285 10 -5
290 10 -25
290 10 -20
290 10 -15
290 10 -10
290 10 -5
295 10 -25
295 10 -20
295 10 -15
295 10 -10
295 10 -5
255 -10 -25
255 -10 -20
255 -10 -15
255 -10 -10
255 -10 -5
260 -10 -25
260 -10 -20
260 -10 -15
260 -10 -10
260 -10 -5
265 -10 -25
265 -10 -20
265 -10 -15
265 -10 -10
265 -10 -5
270 -10 -25
270 -10 -20
270 -10 -15
270 -10 -10
270 -10 -5
275 -10 -25
275 -10 -20
275 -10 -15
275 -10 -10
275 -10 -5
280 -10 -25
280 -10 -20
280 -10 -15
280 -10 -10
280 -10 -5
285 -10 -25
285 -10 -20
285 -10 -15
285 -10 -10
285 -10 -5
290 -10 -25
290 -10 -20
290 -10 -15
290 -10 -10
290 -10 -5
295 -10 -25
295 -10 -20
295 -10 -15
295 -10 -10
295 -10 -5
255 5 -30
255 0 -30
255 -5 -30
260 5 -30
260 0 -30
260 -5 -30
265 5 -30
265 0 -30
265 -5 -30
270 5 -30
270 0 -30
270 -5 -30
275 5 -30
275 0 -30
275 -5 -30
280 5 -30
280 0 -30
280 -5 -30
285 5 -30
285 0 -30
285 -5 -30
290 5 -30
290 0 -30
290 -5 -30
295 5 -30
295 0 -30
295 -5 -30
255 5 0
255 0 0
255 -5 0
260 5 0
260 0 0
260 -5 0
265 5 0
265 0 0
265 -5 0
270 5 0
270 0 0
270 -5 0
275 5 0
275 0 0
275 -5 0
280 5 0
280 0 0
280 -5 0
285 5 0
285 0 0
285 -5 0
290 5 0
290 0 0
290 -5 0
295 5 0
295 0 0
295 -5 0
250 -5 -35
250 0 -35
250 5 -35
250 -5 -40
250 0 -40
250 5 -40
250 -5 -45
250 0 -45
250 5 -45
300 -5 -35
300 0 -35
300 5 -35
300 -5 -40
300 0 -40
300 5 -40
300 -5 -45
300 0 -45
300 5 -45
255 -10 -35
255 -10 -40
255 -10 -45
260 -10 -35
260 -10 -40
260 -10 -45
265 -10 -35
265 -10 -40
265 -10 -45
270 -10 -35
270 -10 -40
270 -10 -45
275 -10 -35
275 -10 -40
275 -10 -45
280 -10 -35
280 -10 -40
280 -10 -45
285 -10 -35
285 -10 -40
285 -10 -45
290 -10 -35
290 -10 -40
290 -10 -45
295 -10 -35
295 -10 -40
295 -10 -45
255 10 -35
255 10 -40
255 10 -45
260 10 -35
260 10 -40
260 10 -45
265 10 -35
265 10 -40
265 10 -45
270 10 -35
270 10 -40
270 10 -45
275 10 -35
275 10 -40
275 10 -45
280 10 -35
280 10 -40
280 10 -45
285 10 -35
285 10 -40
285 10 -45
290 10 -35
290 10 -40
290 10 -45
295 10 -35
295 10 -40
295 10 -45
255 -5 -50
255 0 -50
255 5 -50
260 -5 -50
260 0 -50
260 5 -50
265 -5 -50
265 0 -50
265 5 -50
270 -5 -50
270 0 -50
270 5 -50
275 -5 -50
275 0 -50
275 5 -50
280 -5 -50
280 0 -50
280 5 -50
285 -5 -50
285 0 -50
285 5 -50
290 -5 -50
290 0 -50
290 5 -50
295 -5 -50
295 0 -50
295 5 -50
255 5 -25
255 0 -25
255 -5 -25
255 5 -20
255 0 -20
255 -5 -20
255 5 -15
255 0 -15
255 -5 -15
255 5 -10
255 0 -10
255 -5 -10
255 5 -5
255 0 -5
255 -5 -5
260 5 -25
260 0 -25
260 -5 -25
260 5 -20
260 0 -20
260 -5 -20
260 5 -15
260 0 -15
260 -5 -15
260 5 -10
260 0 -10
260 -5 -10
260 5 -5
260 0 -5
260 -5 -5
265 5 -25
265 0 -25
265 -5 -25
265 5 -20
265 0 -20
265 -5 -20
265 5 -15
265 0 -15
265 -5 -15
265 5 -10
265 0 -10
265 -5 -10
265 5 -5
265 0 -5
265 -5 -5
270 5 -25
270 0 -25
270 -5 -25
270 5 -20
270 0 -20
270 -5 -20
270 5 -15
270 0 -15
270 -5 -15
270 5 -10
270 0 -10
270 -5 -10
270 5 -5
270 0 -5
270 -5 -5
275 5 -25
275 0 -25
275 -5 -25
275 5 -20
275 0 -20
275 -5 -20
275 5 -15
275 0 -15
275 -5 -15
275 5 -10
275 0 -10
275 -5 -10
275 5 -5
275 0 -5
275 -5 -5
280 5 -25
280 0 -25
280 -5 -25
280 5 -20
280 0 -20
280 -5 -20
280 5 -15
280 0 -15
280 -5 -15
280 5 -10
280 0 -10
280 -5 -10
280 5 -5
280 0 -5
280 -5 -5
285 5 -25
285 0 -25
285 -5 -25
285 5 -20
285 0 -20
285 -5 -20
285 5 -15
285 0 -15
285 -5 -15
285 5 -10
285 0 -10
285 -5 -10
285 5 -5
285 0 -5
285 -5 -5
290 5 -25
290 0 -25
290 -5 -25
290 5 -20
290 0 -20
290 -5 -20
290 5 -15
290 0 -15
290 -5 -15
290 5 -10
290 0 -10
290 -5 -10
290 5 -5
290 0 -5
290 -5 -5
295 5 -25
295 0 -25
295 -5 -25
295 5 -20
295 0 -20
295 -5 -20
295 5 -15
295 0 -15
295 -5 -15
295 5 -10
295 0 -10
295 -5 -10
295 5 -5
295 0 -5
295 -5 -5
255 -5 -35
255 0 -35
255 5 -35
255 -5 -40
255 0 -40
255 5 -40
255 -5 -45
255 0 -45
255 5 -45
260 -5 -35
260 0 -35
260 5 -35
260 -5 -40
260 0 -40
260 5 -40
260 -5 -45
260 0 -45
260 5 -45
265 -5 -35
265 0 -35
265 5 -35
265 -5 -40
265 0 -40
265 5 -40
265 -5 -45
265 0 -45
265 5 -45
270 -5 -35
270 0 -35
270 5 -35
270 -5 -40
270 0 -40
270 5 -40
270 -5 -45
270 0 -45
270 5 -45
275 -5 -35
275 0 -35
275 5 -35
275 -5 -40
275 0 -40
275 5 -40
275 -5 -45
275 0 -45
275 5 -45
280 -5 -35
280 0 -35
280 5 -35
280 -5 -40
280 0 -40
280 5 -40
280 -5 -45
280 0 -45
280 5 -45
285 -5 -35
285 0 -35
285 5 -35
285 -5 -40
285 0 -40
285 5 -40
285 -5 -45
285 0 -45
285 5 -45
290 -5 -35
290 0 -35
290 5 -35
290 -5 -40
290 0 -40
290 5 -40
290 -5 -45
290 0 -45
290 5 -45
295 -5 -35
295 0 -35
295 5 -35
295 -5 -40
295 0 -40
295 5 -40
295 -5 -45
295 0 -45
295 5 -45
-200 -10 -30
-150 -10 -30
-50 -10 -30
-100 -10 -30
50 -10 -30
100 -10 -30
150 -10 -30
200 -10 -30
-203.846 -10 -30
-207.692 -10 -30
-211.538 -10 -30
-215.385 -10 -30
-219.231 -10 -30
-223.077 -10 -30
-226.923 -10 -30
-230.769 -10 -30
-234.615 -10 -30
-238.462 -10 -30
-242.308 -10 -30
-246.154 -10 -30
-203.333 -10 -2
-206.667 -10 -4
-210 -10 -6
-213.333 -10 -8
-216.667 -10 -10
-220 -10 -12
-223.333 -10 -14
-226.667 -10 -16
-230 -10 -18
-233.333 -10 -20
-236.667 -10 -22
-240 -10 -24
-243.333 -10 -26
-246.667 -10 -28
-153.333 -10 -28
-156.667 -10 -26
-160 -10 -24
-163.333 -10 -22
-166.667 -10 -20
-170 -10 -18
-173.333 -10 -16
-176.667 -10 -14
-180 -10 -12
-183.333 -10 -10
-186.667 -10 -8
-190 -10 -6
-193.333 -10 -4
-196.667 -10 -2
-150 -10 -26.25
-150 -10 -22.5
-150 -10 -18.75
-150 -10 -15
-150 -10 -11.25
-150 -10 -7.5
-150 -10 -3.75
-200 -10 -3.75
-200 -10 -7.5
-200 -10 -11.25
-200 -10 -15
-200 -10 -18.75
-200 -10 -22.5
-200 -10 -26.25
-103.333 -10 -2
-106.667 -10 -4
-110 -10 -6
-113.333 -10 -8
-116.667 -10 -10
-120 -10 -12
-123.333 -10 -14
-126.667 -10 -16
-130 -10 -18
-133.333 -10 -20
-136.667 -10 -22
-140 -10 -24
-143.333 -10 -26
-146.667 -10 -28
-53.3333 -10 -28
-56.6667 -10 -26
-60 -10 -24
-63.3333 -10 -22
-66.6667 -10 -20
-70 -10 -18
-73.3333 -10 -16
-76.6667 -10 -14
-80 -10 -12
-83.3333 -10 -10
-86.6667 -10 -8
-90 -10 -6
-93.3333 -10 -4
-96.6667 -10 -2
-50 -10 -26.25
-50 -10 -22.5
-50 -10 -18.75
-50 -10 -15
-50 -10 -11.25
-50 -10 -7.5
-50 -10 -3.75
-153.846 -10 -30
-157.692 -10 -30
-161.538 -10 -30
-165.385 -10 -30
-169.231 -10 -30
-173.077 -10 -30
-176.923 -10 -30
-180.769 -10 -30
-184.615 -10 -30
-188.462 -10 -30
-192.308 -10 -30
-196.154 -10 -30
-103.846 -10 -30
-107.692 -10 -30
-111.538 -10 -30
-115.385 -10 -30
-119.231 -10 -30
-123.077 -10 -30
-126.923 -10 -30
-130.769 -10 -30
-134.615 -10 -30
-138.462 -10 -30
-142.308 -10 -30
-146.154 -10 -30
-100 -10 -3.75
-100 -10 -7.5
-100 -10 -11.25
-100 -10 -15
-100 -10 -18.75
-100 -10 -22.5
-100 -10 -26.25
-3.33333 -10 -2
-6.66667 -10 -4
-10 -10 -6
-13.3333 -10 -8
-16.6667 -10 -10
-20 -10 -12
-23.3333 -10 -14
-26.6667 -10 -16
-30 -10 -18
-33.3333 -10 -20
-36.6667 -10 -22
-40 -10 -24
-43.3333 -10 -26
-46.6667 -10 -28
3.33333 -10 -2
6.66667 -10 -4
10 -10 -6
13.3333 -10 -8
16.6667 -10 -10
20 -10 -12
23.3333 -10 -14
26.6667 -10 -16
30 -10 -18
33.3333 -10 -20
36.6667 -10 -22
40 -10 -24
43.3333 -10 -26
46.6667 -10 -28
3.84615 -10 -30
7.69231 -10 -30
11.5385 -10 -30
15.3846 -10 -30
19.2308 -10 -30
23.0769 -10 -30
26.9231 -10 -30
30.7692 -10 -30
34.6154 -10 -30
38.4615 -10 -30
42.3077 -10 -30
46.1538 -10 -30
0 -10 -26.25
0 -10 -22.5
0 -10 -18.75
0 -10 -11.25
0 -10 -7.5
0 -10 -3.75
-53.8462 -10 -30
-57.6923 -10 -30
-61.5385 -10 -30
-65.3846 -10 -30
-69.2308 -10 -30
-73.0769 -10 -30
-76.9231 -10 -30
-80.7692 -10 -30
-84.6154 -10 -30
-88.4615 -10 -30
-92.3077 -10 -30
-96.1538 -10 -30
-3.84615 -10 -30
-7.69231 -10 -30
-11.5385 -10 -30
-15.3846 -10 -30
-19.2308 -10 -30
-23.0769 -10 -30
-26.9231 -10 -30
-30.7692 -10 -30
-34.6154 -10 -30
-38.4615 -10 -30
-42.3077 -10 -30
-46.1538 -10 -30
53.8462 -10 -30
57.6923 -10 -30
61.5385 -10 -30
65.3846 -10 -30
69.2308 -10 -30
73.0769 -10 -30
76.9231 -10 -30
80.7692 -10 -30
84.6154 -10 -30
88.4615 -10 -30
92.3077 -10 -30
96.1538 -10 -30
53.3333 -10 -28
56.6667 -10 -26
60 -10 -24
63.3333 -10 -22
66.6667 -10 -20
70 -10 -18
73.3333 -10 -16
76.6667 -10 -14
80 -10 -12
83.3333 -10 -10
86.6667 -10 -8
90 -10 -6
93.3333 -10 -4
96.6667 -10 -2
100 -10 -3.75
100 -10 -7.5
100 -10 -11.25
100 -10 -15
100 -10 -18.75
100 -10 -22.5
100 -10 -26.25
103.846 -10 -30
107.692 -10 -30
111.538 -10 -30
115.385 -10 -30
119.231 -10 -30
123.077 -10 -30
126.923 -10 -30
130.769 -10 -30
134.615 -10 -30
138.462 -10 -30
142.308 -10 -30
146.154 -10 -30
50 -10 -26.25
50 -10 -22.5
50 -10 -18.75
50 -10 -15
50 -10 -11.25
50 -10 -7.5
50 -10 -3.75
103.333 -10 -2
106.667 -10 -4
110 -10 -6
113.333 -10 -8
116.667 -10 -10
120 -10 -12
123.333 -10 -14
126.667 -10 -16
130 -10 -18
133.333 -10 -20
136.667 -10 -22
140 -10 -24
143.333 -10 -26
146.667 -10 -28
153.846 -10 -30
157.692 -10 -30
161.538 -10 -30
165.385 -10 -30
169.231 -10 -30
173.077 -10 -30
176.923 -10 -30
180.769 -10 -30
184.615 -10 -30
188.462 -10 -30
192.308 -10 -30
196.154 -10 -30
153.333 -10 -28
156.667 -10 -26
160 -10 -24
163.333 -10 -22
166.667 -10 -20
170 -10 -18
173.333 -10 -16
176.667 -10 -14
180 -10 -12
183.333 -10 -10
186.667 -10 -8
190 -10 -6
193.333 -10 -4
196.667 -10 -2
200 -10 -3.75
200 -10 -7.5
200 -10 -11.25
200 -10 -15
200 -10 -18.75
200 -10 -22.5
200 -10 -26.25
203.846 -10 -30
207.692 -10 -30
211.538 -10 -30
215.385 -10 -30
219.231 -10 -30
223.077 -10 -30
226.923 -10 -30
230.769 -10 -30
234.615 -10 -30
238.462 -10 -30
242.308 -10 -30
246.154 -10 -30
150 -10 -26.25
150 -10 -22.5
150 -10 -18.75
150 -10 -15
150 -10 -11.25
150 -10 -7.5
150 -10 -3.75
203.333 -10 -2
206.667 -10 -4
210 -10 -6
213.333 -10 -8
216.667 -10 -10
220 -10 -12
223.333 -10 -14
226.667 -10 -16
230 -10 -18
233.333 -10 -20
236.667 -10 -22
240 -10 -24
243.333 -10 -26
246.667 -10 -28
-200 10 -30
-150 10 -30
-50 10 -30
-100 10 -30
50 10 -30
100 10 -30
150 10 -30
200 10 -30
-203.846 10 -30
-207.692 10 -30
-211.538 10 -30
-215.385 10 -30
-219.231 10 -30
-223.077 10 -30
-226.923 10 -30
-230.769 10 -30
-234.615 10 -30
-238.462 10 -30
-242.308 10 -30
-246.154 10 -30
-203.333 10 -2
-206.667 10 -4
-210 10 -6
-213.333 10 -8
-216.667 10 -10
-220 10 -12
-223.333 10 -14
-226.667 10 -16
-230 10 -18
-233.333 10 -20
-236.667 10 -22
-240 10 -24
-243.333 10 -26
-246.667 10 -28
-153.333 10 -28
-156.667 10 -26
-160 10 -24
-163.333 10 -22
-166.667 10 -20
-170 10 -18
-173.333 10 -16
-176.667 10 -14
-180 10 -12
-183.333 10 -10
-186.667 10 -8
-190 10 -6
-193.333 10 -4
-196.667 10 -2
-150 10 -26.25
-150 10 -22.5
-150 10 -18.75
-150 10 -15
-150 10 -11.25
-150 10 -7.5
-150 10 -3.75
-200 10 -3.75
-200 10 -7.5
-200 10 -11.25
-200 10 -15
-200 10 -18.75
-200 10 -22.5
-200 10 -26.25
-103.333 10 -2
-106.667 10 -4
-110 10 -6
-113.333 10 -8
-116.667 10 -10
-120 10 -12
-123.333 10 -14
-126.667 10 -16
-130 10 -18
-133.333 10 -20
-136.667 10 -22
-140 10 -24
-143.333 10 -26
-146.667 10 -28
-53.3333 10 -28
-56.6667 10 -26
-60 10 -24
-63.3333 10 -22
-66.6667 10 -20
-70 10 -18
-73.3333 10 -16
-76.6667 10 -14
-80 10 -12
-83.3333 10 -10
-86.6667 10 -8
-90 10 -6
-93.3333 10 -4
-96.6667 10 -2
-50 10 -26.25
-50 10 -22.5
-50 10 -18.75
-50 10 -15
-50 10 -11.25
-50 10 -7.5
-50 10 -3.75
-153.846 10 -30
-157.692 10 -30
-161.538 10 -30
-165.385 10 -30
-169.231 10 -30
-173.077 10 -30
-176.923 10 -30
-180.769 10 -30
-184.615 10 -30
-188.462 10 -30
-192.308 10 -30
-196.154 10 -30
-103.846 10 -30
-107.692 10 -30
-111.538 10 -30
-115.385 10 -30
-119.231 10 -30
-123.077 10 -30
-126.923 10 -30
-130.769 10 -30
-134.615 10 -30
-138.462 10 -30
-142.308 10 -30
-146.154 10 -30
-100 10 -3.75
-100 10 -7.5
-100 10 -11.25
-100 10 -15
-100 10 -18.75
-100 10 -22.5
-100 10 -26.25
-3.33333 10 -2
-6.66667 10 -4
-10 10 -6
-13.3333 10 -8
-16.6667 10 -10
-20 10 -12
-23.3333 10 -14
-26.6667 10 -16
-30 10 -18
-33.3333 10 -20
-36.6667 10 -22
-40 10 -24
-43.3333 10 -26
-46.6667 10 -28
3.33333 10 -2
6.66667 10 -4
10 10 -6
13.3333 10 -8
16.6667 10 -10
20 10 -12
23.3333 10 -14
26.6667 10 -16
30 10 -18
33.3333 10 -20
36.6667 10 -22
40 10 -24
43.3333 10 -26
46.6667 10 -28
3.84615 10 -30
7.69231 10 -30
11.5385 10 -30
15.3846 10 -30
19.2308 10 -30
23.0769 10 -30
26.9231 10 -30
30.7692 10 -30
34.6154 10 -30
38.4615 10 -30
42.3077 10 -30
46.1538 10 -30
0 10 -26.25
0 10 -22.5
0 10 -18.75
0 10 -11.25
0 10 -7.5
0 10 -3.75
-53.8462 10 -30
-57.6923 10 -30
-61.5385 10 -30
-65.3846 10 -30
-69.2308 10 -30
-73.0769 10 -30
-76.9231 10 -30
-80.7692 10 -30
-84.6154 10 -30
-88.4615 10 -30
-92.3077 10 -30
-96.1538 10 -30
-3.84615 10 -30
-7.69231 10 -30
-11.5385 10 -30
-15.3846 10 -30
-19.2308 10 -30
-23.0769 10 -30
-26.9231 10 -30
-30.7692 10 -30
-34.6154 10 -30
-38.4615 10 -30
-42.3077 10 -30
-46.1538 10 -30
53.8462 10 -30
57.6923 10 -30
61.5385 10 -30
65.3846 10 -30
69.2308 10 -30
73.0769 10 -30
76.9231 10 -30
80.7692 10 -30
84.6154 10 -30
88.4615 10 -30
92.3077 10 -30
96.1538 10 -30
53.3333 10 -28
56.6667 10 -26
60 10 -24
63.3333 10 -22
66.6667 10 -20
70 10 -18
73.3333 10 -16
76.6667 10 -14
80 10 -12
83.3333 10 -10
86.6667 10 -8
90 10 -6
93.3333 10 -4
96.6667 10 -2
100 10 -3.75
100 10 -7.5
100 10 -11.25
100 10 -15
100 10 -18.75
100 10 -22.5
100 10 -26.25
103.846 10 -30
107.692 10 -30
111.538 10 -30
115.385 10 -30
119.231 10 -30
123.077 10 -30
126.923 10 -30
130.769 10 -30
134.615 10 -30
138.462 10 -30
142.308 10 -30
146.154 10 -30
50 10 -26.25
50 10 -22.5
50 10 -18.75
50 10 -15
50 10 -11.25
50 10 -7.5
50 10 -3.75
103.333 10 -2
106.667 10 -4
110 10 -6
113.333 10 -8
116.667 10 -10
120 10 -12
123.333 10 -14
126.667 10 -16
130 10 -18
133.333 10 -20
136.667 10 -22
140 10 -24
143.333 10 -26
146.667 10 -28
153.846 10 -30
157.692 10 -30
161.538 10 -30
165.385 10 -30
169.231 10 -30
173.077 10 -30
176.923 10 -30
180.769 10 -30
184.615 10 -30
188.462 10 -30
192.308 10 -30
196.154 10 -30
153.333 10 -28
156.667 10 -26
160 10 -24
163.333 10 -22
166.667 10 -20
170 10 -18
173.333 10 -16
176.667 10 -14
180 10 -12
183.333 10 -10
186.667 10 -8
190 10 -6
193.333 10 -4
196.667 10 -2
200 10 -3.75
200 10 -7.5
200 10 -11.25
200 10 -15
200 10 -18.75
200 10 -22.5
200 10 -26.25
203.846 10 -30
207.692 10 -30
211.538 10 -30
215.385 10 -30
219.231 10 -30
223.077 10 -30
226.923 10 -30
230.769 10 -30
234.615 10 -30
238.462 10 -30
242.308 10 -30
246.154 10 -30
150 10 -26.25
150 10 -22.5
150 10 -18.75
150 10 -15
150 10 -11.25
150 10 -7.5
150 10 -3.75
203.333 10 -2
206.667 10 -4
210 10 -6
213.333 10 -8
216.667 10 -10
220 10 -12
223.333 10 -14
226.667 10 -16
230 10 -18
233.333 10 -20
236.667 10 -22
240 10 -24
243.333 10 -26
246.667 10 -28
CELLS 2884 20012
4 0 22 235 45
4 22 23 236 235
4 23 24 237 236
4 24 1 25 237
4 45 235 238 44
4 235 236 239 238
4 236 237 240 239
4 237 25 26 240
4 44 238 241 43
4 238 239 242 241
4 239 240 243 242
4 240 26 27 243
4 43 241 244 42
4 241 242 245 244
4 242 243 246 245
4 243 27 28 246
4 42 244 247 41
4 244 245 248 247
4 245 246 249 248
4 246 28 29 249
4 41 247 250 40
4 247 248 251 250
4 248 249 252 251
4 249 29 30 252
4 40 250 253 39
4 250 251 254 253
4 251 252 255 254
4 252 30 31 255
4 39 253 256 38
4 253 254 257 256
4 254 255 258 257
4 255 31 32 258
4 38 256 259 37
4 256 257 260 259
4 257 258 261 260
4 258 32 33 261
4 37 259 36 3
4 259 260 35 36
4 260 261 34 35
4 261 33 2 34
4 3 36 262 66
4 36 35 263 262
4 35 34 264 263
4 34 2 46 264
4 66 262 265 65
4 262 263 266 265
4 263 264 267 266
4 264 46 47 267
4 65 265 268 64
4 265 266 269 268
4 266 267 270 269
4 267 47 48 270
4 64 268 271 63
4 268 269 272 271
4 269 270 273 272
4 270 48 49 273
4 63 271 274 62
4 271 272 275 274
4 272 273 276 275
4 273 49 50 276
4 62 274 277 61
4 274 275 278 277
4 275 276 279 278
4 276 50 51 279
4 61 277 280 60
4 277 278 281 280
4 278 279 282 281
4 279 51 52 282
4 60 280 283 59
4 280 281 284 283
4 281 282 285 284
4 282 52 53 285
4 59 283 286 58
4 283 284 287 286
4 284 285 288 287
4 285 53 54 288
4 58 286 57 5
4 286 287 56 57
4 287 288 55 56
4 288 54 4 55
4 5 57 289 87
4 57 56 290 289
4 56 55 291 290
4 55 4 67 291
4 87 289 292 86
4 289 290 293 292
4 290 291 294 293
4 291 67 68 294
4 86 292 295 85
4 292 293 296 295
4 293 294 297 296
4 294 68 69 297
4 85 295 298 84
4 295 296 299 298
4 296 297 300 299
4 297 69 70 300
4 84 298 301 83
4 298 299 302 301
4 299 300 303 302
4 300 70 71 303
4 83 301 304 82
4 301 302 305 304
4 302 303 306 305
4 303 71 72 306
4 82 304 307 81
4 304 305 308 307
4 305 306 309 308
4 306 72 73 309
4 81 307 310 80
4 307 308 311 310
4 308 309 312 311
4 309 73 74 312
4 80 310 313 79
4 310 311 314 313
4 311 312 315 314
4 312 74 75 315
4 79 313 78 7
4 313 314 77 78
4 314 315 76 77
4 315 75 6 76
4 7 78 316 108
4 78 77 317 316
4 77 76 318 317
4 76 6 88 318
4 108 316 319 107
4 316 317 320 319
4 317 318 321 320
4 318 88 89 321
4 107 319 322 106
4 319 320 323 322
4 320 321 324 323
4 321 89 90 324
4 106 322 325 105
4 322 323 326 325
4 323 324 327 326
4 324 90 91 327
4 105 325 328 104
4 325 326 329 328
4 326 327 330 329
4 327 91 92 330
4 104 328 331 103
4 328 329 332 331
4 329 330 333 332
4 330 92 93 333
4 103 331 334 102
4 331 332 335 334
4 332 333 336 335
4 333 93 94 336
4 102 334 337 101
4 334 335 338 337
4 335 336 339 338
4 336 94 95 339
4 101 337 340 100
4 337 338 341 340
4 338 339 342 341
4 339 95 96 342
4 100 340 99 9
4 340 341 98 99
4 341 342 97 98
4 342 96 8 97
4 9 99 343 129
4 99 98 344 343
4 98 97 345 344
4 97 8 109 345
4 129 343 346 128
4 343 344 347 346
4 344 345 348 347
4 345 109 110 348
4 128 346 349 127
4 346 347 350 349
4 347 348 351 350
4 348 110 111 351
4 127 349 352 126
4 349 350 353 352
4 350 351 354 353
4 351 111 112 354
4 126 352 355 125
4 352 353 356 355
4 353 354 357 356
4 354 112 113 357
4 125 355 358 124
4 355 356 359 358
4 356 357 360 359
4 357 113 114 360
4 124 358 361 123
4 358 359 362 361
4 359 360 363 362
4 360 114 115 363
4 123 361 364 122
4 361 362 365 364
4 362 363 366 365
4 363 115 116 366
4 122 364 367 121
4 364 365 368 367
4 365 366 369 368
4 366 116 117 369
4 121 367 120 11
4 367 368 119 120
4 368 369 118 119
4 369 117 10 118
4 11 120 370 150
4 120 119 371 370
4 119 118 372 371
4 118 10 130 372
4 150 370 373 149
4 370 371 374 373
4 371 372 375 374
4 372 130 131 375
4 149 373 376 148
4 373 374 377 376
4 374 375 378 377
4 375 131 132 378
4 148 376 379 147
4 376 377 380 379
4 377 378 381 380
4 378 132 133 381
4 147 379 382 146
4 379 380 383 382
4 380 381 384 383
4 381 133 134 384
4 146 382 385 145
4 382 383 386 385
4 383 384 387 386
4 384 134 135 387
4 145 385 388 144
4 385 386 389 388
4 386 387 390 389
4 387 135 136 390
4 144 388 391 143
4 388 389 392 391
4 389 390 393 392
4 390 136 137 393
4 143 391 394 142
4 391 392 395 394
4 392 393 396 395
4 393 137 138 396
4 142 394 141 13
4 394 395 140 141
4 395 396 139 140
4 396 138 12 139
4 13 141 397 171
4 141 140 398 397
4 140 139 399 398
4 139 12 151 399
4 171 397 400 170
4 397 398 401 400
4 398 399 402 401
4 399 151 152 402
4 170 400 403 169
4 400 401 404 403
4 401 402 405 404
4 402 152 153 405
4 169 403 406 168
4 403 404 407 406
4 404 405 408 407
4 405 153 154 408
4 168 406 409 167
4 406 407 410 409
4 407 408 411 410
4 408 154 155 411
4 167 409 412 166
4 409 410 413 412
4 410 411 414 413
4 411 155 156 414
4 166 412 415 165
4 412 413 416 415
4 413 414 417 416
4 414 156 157 417
4 165 415 418 164
4 415 416 419 418
4 416 417 420 419
4 417 157 158 420
4 164 418 421 163
4 418 419 422 421
4 419 420 423 422
4 420 158 159 423
4 163 421 162 15
4 421 422 161 162
4 422 423 160 161
4 423 159 14 160
4 15 162 424 192
4 162 161 425 424
4 161 160 426 425
4 160 14 172 426
4 192 424 427 191
4 424 425 428 427
4 425 426 429 428
4 426 172 173 429
4 191 427 430 190
4 427 428 431 430
4 428 429 432 431
4 429 173 174 432
4 190 430 433 189
4 430 431 434 433
4 431 432 435 434
4 432 174 175 435
4 189 433 436 188
4 433 434 437 436
4 434 435 438 437
4 435 175 176 438
4 188 436 439 187
4 436 437 440 439
4 437 438 441 440
4 438 176 177 441
4 187 439 442 186
4 439 440 443 442
4 440 441 444 443
4 441 177 178 444
4 186 442 445 185
4 442 443 446 445
4 443 444 447 446
4 444 178 179 447
4 185 445 448 184
4 445 446 449 448
4 446 447 450 449
4 447 179 180 450
4 184 448 183 17
4 448 449 182 183
4 449 450 181 182
4 450 180 16 181
4 17 183 451 213
4 183 182 452 451
4 182 181 453 452
4 181 16 193 453
4 213 451 454 212
4 451 452 455 454
4 452 453 456 455
4 453 193 194 456
4 212 454 457 211
4 454 455 458 457
4 455 456 459 458
4 456 194 195 459
4 211 457 460 210
4 457 458 461 460
4 458 459 462 461
4 459 195 196 462
4 210 460 463 209
4 460 461 464 463
4 461 462 465 464
4 462 196 197 465
4 209 463 466 208
4 463 464 467 466
4 464 465 468 467
4 465 197 198 468
4 208 466 469 207
4 466 467 470 469
4 467 468 471 470
4 468 198 199 471
4 207 469 472 206
4 469 470 473 472
4 470 471 474 473
4 471 199 200 474
4 206 472 475 205
4 472 473 476 475
4 473 474 477 476
4 474 200 201 477
4 205 475 204 19
4 475 476 203 204
4 476 477 202 203
4 477 201 18 202
4 1 24 478 234
4 24 23 479 478
4 23 22 480 479
4 22 0 214 480
4 234 478 481 233
4 478 479 482 481
4 479 480 483 482
4 480 214 215 483
4 233 481 484 232
4 481 482 485 484
4 482 483 486 485
4 483 215 216 486
4 232 484 487 231
4 484 485 488 487
4 485 486 489 488
4 486 216 217 489
4 231 487 490 230
4 487 488 491 490
4 488 489 492 491
4 489 217 218 492
4 230 490 493 229
4 490 491 494 493
4 491 492 495 494
4 492 218 219 495
4 229 493 496 228
4 493 494 497 496
4 494 495 498 497
4 495 219 220 498
4 228 496 499 227
4 496 497 500 499
4 497 498 501 500
4 498 220 221 501
4 227 499 502 226
4 499 500 503 502
4 500 501 504 503
4 501 221 222 504
4 226 502 225 21
4 502 503 224 225
4 503 504 223 224
4 504 222 20 223
8 605 932 1209 776 505 517 772 522
8 932 645 854 1209 517 506 518 772
8 776 1209 1210 777 522 772 773 521
8 1209 854 855 1210 772 518 519 773
8 777 1210 971 529 521 773 520 508
8 1210 855 644 971 773 519 507 520
8 604 933 1211 778 605 932 1209 776
8 933 646 856 1211 932 645 854 1209
8 778 1211 1212 779 776 1209 1210 777
8 1211 856 857 1212 1209 854 855 1210
8 779 1212 972 530 777 1210 971 529
8 1212 857 643 972 1210 855 644 971
8 603 934 1213 780 604 933 1211 778
8 934 647 858 1213 933 646 856 1211
8 780 1213 1214 781 778 1211 1212 779
8 1213 858 859 1214 1211 856 857 1212
8 781 1214 973 531 779 1212 972 530
8 1214 859 642 973 1212 857 643 972
8 602 935 1215 782 603 934 1213 780
8 935 648 860 1215 934 647 858 1213
8 782 1215 1216 783 780 1213 1214 781
8 1215 860 861 1216 1213 858 859 1214
8 783 1216 974 532 781 1214 973 531
8 1216 861 641 974 1214 859 642 973
8 601 936 1217 784 602 935 1215 782
8 936 649 862 1217 935 648 860 1215
8 784 1217 1218 785 782 1215 1216 783
8 1217 862 863 1218 1215 860 861 1216
8 785 1218 975 533 783 1216 974 532
8 1218 863 640 975 1216 861 641 974
8 600 937 1219 786 601 936 1217 784
8 937 650 864 1219 936 649 862 1217
8 786 1219 1220 787 784 1217 1218 785
8 1219 864 865 1220 1217 862 863 1218
8 787 1220 976 534 785 1218 975 533
8 1220 865 639 976 1218 863 640 975
8 599 938 1221 788 600 937 1219 786
8 938 651 866 1221 937 650 864 1219
8 788 1221 1222 789 786 1219 1220 787
8 1221 866 867 1222 1219 864 865 1220
8 789 1222 977 535 787 1220 976 534
8 1222 867 638 977 1220 865 639 976
8 598 939 1223 790 599 938 1221 788
8 939 652 868 1223 938 651 866 1221
8 790 1223 1224 791 788 1221 1222 789
8 1223 868 869 1224 1221 866 867 1222
8 791 1224 978 536 789 1222 977 535
8 1224 869 637 978 1222 867 638 977
8 597 940 1225 792 598 939 1223 790
8 940 653 870 1225 939 652 868 1223
8 792 1225 1226 793 790 1223 1224 791
8 1225 870 871 1226 1223 868 869 1224
8 793 1226 979 537 791 1224 978 536
8 1226 871 636 979 1224 869 637 978
8 9 941 1227 794 597 940 1225 792
8 941 654 872 1227 940 653 870 1225
8 794 1227 1228 795 792 1225 1226 793
8 1227 872 873 1228 1225 870 871 1226
8 795 1228 980 538 793 1226 979 537
8 1228 873 635 980 1226 871 636 979
8 596 942 1229 796 9 941 1227 794
8 942 655 874 1229 941 654 872 1227
8 796 1229 1230 797 794 1227 1228 795
8 1229 874 875 1230 1227 872 873 1228
8 797 1230 981 539 795 1228 980 538
8 1230 875 634 981 1228 873 635 980
8 595 943 1231 798 596 942 1229 796
8 943 656 876 1231 942 655 874 1229
8 798 1231 1232 799 796 1229 1230 797
8 1231 876 877 1232 1229 874 875 1230
8 799 1232 982 540 797 1230 981 539
8 1232 877 633 982 1230 875 634 981
8 594 944 1233 800 595 943 1231 798
8 944 657 878 1233 943 656 876 1231
8 800 1233 1234 801 798 1231 1232 799
8 1233 878 879 1234 1231 876 877 1232
8 801 1234 983 541 799 1232 982 540
8 1234 879 632 983 1232 877 633 982
8 593 945 1235 802 594 944 1233 800
8 945 658 880 1235 944 657 878 1233
8 802 1235 1236 803 800 1233 1234 801
8 1235 880 881 1236 1233 878 879 1234
8 803 1236 984 542 801 1234 983 541
8 1236 881 631 984 1234 879 632 983
8 592 946 1237 804 593 945 1235 802
8 946 659 882 1237 945 658 880 1235
8 804 1237 1238 805 802 1235 1236 803
8 1237 882 883 1238 1235 880 881 1236
8 805 1238 985 543 803 1236 984 542
8 1238 883 630 985 1236 881 631 984
8 591 947 1239 806 592 946 1237 804
8 947 660 884 1239 946 659 882 1237
8 806 1239 1240 807 804 1237 1238 805
8 1239 884 885 1240 1237 882 883 1238
8 807 1240 986 544 805 1238 985 543
8 1240 885 629 986 1238 883 630 985
8 590 948 1241 808 591 947 1239 806
8 948 661 886 1241 947 660 884 1239
8 808 1241 1242 809 806 1239 1240 807
8 1241 886 887 1242 1239 884 885 1240
8 809 1242 987 545 807 1240 986 544
8 1242 887 628 987 1240 885 629 986
8 589 949 1243 810 590 948 1241 808
8 949 662 888 1243 948 661 886 1241
8 810 1243 1244 811 808 1241 1242 809
8 1243 888 889 1244 1241 886 887 1242
8 811 1244 988 546 809 1242 987 545
8 1244 889 627 988 1242 887 628 987
8 588 950 1245 812 589 949 1243 810
8 950 663 890 1245 949 662 888 1243
8 812 1245 1246 813 810 1243 1244 811
8 1245 890 891 1246 1243 888 889 1244
8 813 1246 989 547 811 1244 988 546
8 1246 891 626 989 1244 889 627 988
8 587 951 1247 814 588 950 1245 812
8 951 664 892 1247 950 663 890 1245
8 814 1247 1248 815 812 1245 1246 813
8 1247 892 893 1248 1245 890 891 1246
8 815 1248 990 548 813 1246 989 547
8 1248 893 625 990 1246 891 626 989
8 586 952 1249 816 587 951 1247 814
8 952 665 894 1249 951 664 892 1247
8 816 1249 1250 817 814 1247 1248 815
8 1249 894 895 1250 1247 892 893 1248
8 817 1250 991 549 815 1248 990 548
8 1250 895 624 991 1248 893 625 990
8 585 953 1251 818 586 952 1249 816
8 953 666 896 1251 952 665 894 1249
8 818 1251 1252 819 816 1249 1250 817
8 1251 896 897 1252 1249 894 895 1250
8 819 1252 992 550 817 1250 991 549
8 1252 897 623 992 1250 895 624 991
8 584 954 1253 820 585 953 1251 818
8 954 667 898 1253 953 666 896 1251
8 820 1253 1254 821 818 1251 1252 819
8 1253 898 899 1254 1251 896 897 1252
8 821 1254 993 551 819 1252 992 550
8 1254 899 622 993 1252 897 623 992
8 583 955 1255 822 584 954 1253 820
8 955 668 900 1255 954 667 898 1253
8 822 1255 1256 823 820 1253 1254 821
8 1255 900 901 1256 1253 898 899 1254
8 823 1256 994 552 821 1254 993 551
8 1256 901 621 994 1254 899 622 993
8 582 956 1257 824 583 955 1255 822
8 956 669 902 1257 955 668 900 1255
8 824 1257 1258 825 822 1255 1256 823
8 1257 902 903 1258 1255 900 901 1256
8 825 1258 995 553 823 1256 994 552
8 1258 903 620 995 1256 901 621 994
8 581 957 1259 826 582 956 1257 824
8 957 670 904 1259 956 669 902 1257
8 826 1259 1260 827 824 1257 1258 825
8 1259 904 905 1260 1257 902 903 1258
8 827 1260 996 554 825 1258 995 553
8 1260 905 619 996 1258 903 620 995
8 580 958 1261 828 581 957 1259 826
8 958 671 906 1261 957 670 904 1259
8 828 1261 1262 829 826 1259 1260 827
8 1261 906 907 1262 1259 904 905 1260
8 829 1262 997 555 827 1260 996 554
8 1262 907 618 997 1260 905 619 996
8 579 959 1263 830 580 958 1261 828
8 959 672 908 1263 958 671 906 1261
8 830 1263 1264 831 828 1261 1262 829
8 1263 908 909 1264 1261 906 907 1262
8 831 1264 998 556 829 1262 997 555
8 1264 909 617 998 1262 907 618 997
8 578 960 1265 832 579 959 1263 830
8 960 673 910 1265 959 672 908 1263
8 832 1265 1266 833 830 1263 1264 831
8 1265 910 911 1266 1263 908 909 1264
8 833 1266 999 557 831 1264 998 556
8 1266 911 616 999 1264 909 617 998
8 577 961 1267 834 578 960 1265 832
8 961 674 912 1267 960 673 910 1265
8 834 1267 1268 835 832 1265 1266 833
8 1267 912 913 1268 1265 910 911 1266
8 835 1268 1000 558 833 1266 999 557
8 1268 913 615 1000 1266 911 616 999
8 576 962 1269 836 577 961 1267 834
8 962 675 914 1269 961 674 912 1267
8 836 1269 1270 837 834 1267 1268 835
8 1269 914 915 1270 1267 912 913 1268
8 837 1270 1001 559 835 1268 1000 558
8 1270 915 614 1001 1268 913 615 1000
8 575 963 1271 838 576 962 1269 836
8 963 676 916 1271 962 675 914 1269
8 838 1271 1272 839 836 1269 1270 837
8 1271 916 917 1272 1269 914 915 1270
8 839 1272 1002 560 837 1270 1001 559
8 1272 917 613 1002 1270 915 614 1001
8 574 964 1273 840 575 963 1271 838
8 964 677 918 1273 963 676 916 1271
8 840 1273 1274 841 838 1271 1272 839
8 1273 918 919 1274 1271 916 917 1272
8 841 1274 1003 561 839 1272 1002 560
8 1274 919 612 1003 1272 917 613 1002
8 573 965 1275 842 574 964 1273 840
8 965 678 920 1275 964 677 918 1273
8 842 1275 1276 843 840 1273 1274 841
8 1275 920 921 1276 1273 918 919 1274
8 843 1276 1004 562 841 1274 1003 561
8 1276 921 611 1004 1274 919 612 1003
8 572 966 1277 844 573 965 1275 842
8 966 679 922 1277 965 678 920 1275
8 844 1277 1278 845 842 1275 1276 843
8 1277 922 923 1278 1275 920 921 1276
8 845 1278 1005 563 843 1276 1004 562
8 1278 923 610 1005 1276 921 611 1004
8 571 967 1279 846 572 966 1277 844
8 967 680 924 1279 966 679 922 1277
8 846 1279 1280 847 844 1277 1278 845
8 1279 924 925 1280 1277 922 923 1278
8 847 1280 1006 564 845 1278 1005 563
8 1280 925 609 1006 1278 923 610 1005
8 570 968 1281 848 571 967 1279 846
8 968 681 926 1281 967 680 924 1279
8 848 1281 1282 849 846 1279 1280 847
8 1281 926 927 1282 1279 924 925 1280
8 849 1282 1007 565 847 1280 1006 564
8 1282 927 608 1007 1280 925 609 1006
8 569 969 1283 850 570 968 1281 848
8 969 682 928 1283 968 681 926 1281
8 850 1283 1284 851 848 1281 1282 849
8 1283 928 929 1284 1281 926 927 1282
8 851 1284 1008 566 849 1282 1007 565
8 1284 929 607 1008 1282 927 608 1007
8 568 970 1285 852 569 969 1283 850
8 970 683 930 1285 969 682 928 1283
8 852 1285 1286 853 850 1283 1284 851
8 1285 930 931 1286 1283 928 929 1284
8 853 1286 1009 567 851 1284 1008 566
8 1286 931 606 1009 1284 929 607 1008
8 512 523 774 527 568 970 1285 852
8 523 509 525 774 970 683 930 1285
8 527 774 775 528 852 1285 1286 853
8 774 525 524 775 1285 930 931 1286
8 528 775 526 511 853 1286 1009 567
8 775 524 510 526 1286 931 606 1009
8 645 932 1287 1014 506 517 1010 688
8 932 605 1092 1287 517 505 684 1010
8 1014 1287 1288 1015 688 1010 1011 687
8 1287 1092 1093 1288 1010 684 685 1011
8 1015 1288 1170 694 687 1011 686 514
8 1288 1093 771 1170 1011 685 513 686
8 646 933 1289 1016 645 932 1287 1014
8 933 604 1094 1289 932 605 1092 1287
8 1016 1289 1290 1017 1014 1287 1288 1015
8 1289 1094 1095 1290 1287 1092 1093 1288
8 1017 1290 1171 695 1015 1288 1170 694
8 1290 1095 770 1171 1288 1093 771 1170
8 647 934 1291 1018 646 933 1289 1016
8 934 603 1096 1291 933 604 1094 1289
8 1018 1291 1292 1019 1016 1289 1290 1017
8 1291 1096 1097 1292 1289 1094 1095 1290
8 1019 1292 1172 696 1017 1290 1171 695
8 1292 1097 769 1172 1290 1095 770 1171
8 648 935 1293 1020 647 934 1291 1018
8 935 602 1098 1293 934 603 1096 1291
8 1020 1293 1294 1021 1018 1291 1292 1019
8 1293 1098 1099 1294 1291 1096 1097 1292
8 1021 1294 1173 697 1019 1292 1172 696
8 1294 1099 768 1173 1292 1097 769 1172
8 649 936 1295 1022 648 935 1293 1020
8 936 601 1100 1295 935 602 1098 1293
8 1022 1295 1296 1023 1020 1293 1294 1021
8 1295 1100 1101 1296 1293 1098 1099 1294
8 1023 1296 1174 698 1021 1294 1173 697
8 1296 1101 767 1174 1294 1099 768 1173
8 650 937 1297 1024 649 936 1295 1022
8 937 600 1102 1297 936 601 1100 1295
8 1024 1297 1298 1025 1022 1295 1296 1023
8 1297 1102 1103 1298 1295 1100 1101 1296
8 1025 1298 1175 699 1023 1296 1174 698
8 1298 1103 766 1175 1296 1101 767 1174
8 651 938 1299 1026 650 937 1297 1024
8 938 599 1104 1299 937 600 1102 1297
8 1026 1299 1300 1027 1024 1297 1298 1025
8 1299 1104 1105 1300 1297 1102 1103 1298
8 1027 1300 1176 700 1025 1298 1175 699
8 1300 1105 765 1176 1298 1103 766 1175
8 652 939 1301 1028 651 938 1299 1026
8 939 598 1106 1301 938 599 1104 1299
8 1028 1301 1302 1029 1026 1299 1300 1027
8 1301 1106 1107 1302 1299 1104 1105 1300
8 1029 1302 1177 701 1027 1300 1176 700
8 1302 1107 764 1177 1300 1105 765 1176
8 653 940 1303 1030 652 939 1301 1028
8 940 597 1108 1303 939 598 1106 1301
8 1030 1303 1304 1031 1028 1301 1302 1029
8 1303 1108 1109 1304 1301 1106 1107 1302
8 1031 1304 1178 702 1029 1302 1177 701
8 1304 1109 763 1178 1302 1107 764 1177
8 654 941 1305 1032 653 940 1303 1030
8 941 9 1110 1305 940 597 1108 1303
8 1032 1305 1306 1033 1030 1303 1304 1031
8 1305 1110 1111 1306 1303 1108 1109 1304
8 1033 1306 1179 703 1031 1304 1178 702
8 1306 1111 762 1179 1304 1109 763 1178
8 655 942 1307 1034 654 941 1305 1032
8 942 596 1112 1307 941 9 1110 1305
8 1034 1307 1308 1035 1032 1305 1306 1033
8 1307 1112 1113 1308 1305 1110 1111 1306
8 1035 1308 1180 704 1033 1306 1179 703
8 1308 1113 761 1180 1306 1111 762 1179
8 656 943 1309 1036 655 942 1307 1034
8 943 595 1114 1309 942 596 1112 1307
8 1036 1309 1310 1037 1034 1307 1308 1035
8 1309 1114 1115 1310 1307 1112 1113 1308
8 1037 1310 1181 705 1035 1308 1180 704
8 1310 1115 760 1181 1308 1113 761 1180
8 657 944 1311 1038 656 943 1309 1036
8 944 594 1116 1311 943 595 1114 1309
8 1038 1311 1312 1039 1036 1309 1310 1037
8 1311 1116 1117 1312 1309 1114 1115 1310
8 1039 1312 1182 706 1037 1310 1181 705
8 1312 1117 759 1182 1310 1115 760 1181
8 658 945 1313 1040 657 944 1311 1038
8 945 593 1118 1313 944 594 1116 1311
8 1040 1313 1314 1041 1038 1311 1312 1039
8 1313 1118 1119 1314 1311 1116 1117 1312
8 1041 1314 1183 707 1039 1312 1182 706
8 1314 1119 758 1183 1312 1117 759 1182
8 659 946 1315 1042 658 945 1313 1040
8 946 592 1120 1315 945 593 1118 1313
8 1042 1315 1316 1043 1040 1313 1314 1041
8 1315 1120 1121 1316 1313 1118 1119 1314
8 1043 1316 1184 708 1041 1314 1183 707
8 1316 1121 757 1184 1314 1119 758 1183
8 660 947 1317 1044 659 946 1315 1042
8 947 591 1122 1317 946 592 1120 1315
8 1044 1317 1318 1045 1042 1315 1316 1043
8 1317 1122 1123 1318 1315 1120 1121 1316
8 1045 1318 1185 709 1043 1316 1184 708
8 1318 1123 756 1185 1316 1121 757 1184
8 661 948 1319 1046 660 947 1317 1044
8 948 590 1124 1319 947 591 1122 1317
8 1046 1319 1320 1047 1044 1317 1318 1045
8 1319 1124 1125 1320 1317 1122 1123 1318
8 1047 1320 1186 710 1045 1318 1185 709
8 1320 1125 755 1186 1318 1123 756 1185
8 662 949 1321 1048 661 948 1319 1046
8 949 589 1126 1321 948 590 1124 1319
8 1048 1321 1322 1049 1046 1319 1320 1047
8 1321 1126 1127 1322 1319 1124 1125 1320
8 1049 1322 1187 711 1047 1320 1186 710
8 1322 1127 754 1187 1320 1125 755 1186
8 663 950 1323 1050 662 949 1321 1048
8 950 588 1128 1323 949 589 1126 1321
8 1050 1323 1324 1051 1048 1321 1322 1049
8 1323 1128 1129 1324 1321 1126 1127 1322
8 1051 1324 1188 712 1049 1322 1187 711
8 1324 1129 753 1188 1322 1127 754 1187
8 664 951 1325 1052 663 950 1323 1050
8 951 587 1130 1325 950 588 1128 1323
8 1052 1325 1326 1053 1050 1323 1324 1051
8 1325 1130 1131 1326 1323 1128 1129 1324
8 1053 1326 1189 713 1051 1324 1188 712
8 1326 1131 752 1189 1324 1129 753 1188
8 665 952 1327 1054 664 951 1325 1052
8 952 586 1132 1327 951 587 1130 1325
8 1054 1327 1328 1055 1052 1325 1326 1053
8 1327 1132 1133 1328 1325 1130 1131 1326
8 1055 1328 1190 714 1053 1326 1189 713
8 1328 1133 751 1190 1326 1131 752 1189
8 666 953 1329 1056 665 952 1327 1054
8 953 585 1134 1329 952 586 1132 1327
8 1056 1329 1330 1057 1054 1327 1328 1055
8 1329 1134 1135 1330 1327 1132 1133 1328
8 1057 1330 1191 715 1055 1328 1190 714
8 1330 1135 750 1191 1328 1133 751 1190
8 667 954 1331 1058 666 953 1329 1056
8 954 584 1136 1331 953 585 1134 1329
8 1058 1331 1332 1059 1056 1329 1330 1057
8 1331 1136 1137 1332 1329 1134 1135 1330
8 1059 1332 1192 716 1057 1330 1191 715
8 1332 1137 749 1192 1330 1135 750 1191
8 668 955 1333 1060 667 954 1331 1058
8 955 583 1138 1333 954 584 1136 1331
8 1060 1333 1334 1061 1058 1331 1332 1059
8 1333 1138 1139 1334 1331 1136 1137 1332
8 1061 1334 1193 717 1059 1332 1192 716
8 1334 1139 748 1193 1332 1137 749 1192
8 669 956 1335 1062 668 955 1333 1060
8 956 582 1140 1335 955 583 1138 1333
8 1062 1335 1336 1063 1060 1333 1334 1061
8 1335 1140 1141 1336 1333 1138 1139 1334
8 1063 1336 1194 718 1061 1334 1193 717
8 1336 1141 747 1194 1334 1139 748 1193
8 670 957 1337 1064 669 956 1335 1062
8 957 581 1142 1337 956 582 1140 1335
8 1064 1337 1338 1065 1062 1335 1336 1063
8 1337 1142 1143 1338 1335 1140 1141 1336
8 1065 1338 1195 719 1063 1336 1194 718
8 1338 1143 746 1195 1336 1141 747 1194
8 671 958 1339 1066 670 957 1337 1064
8 958 580 1144 1339 957 581 1142 1337
8 1066 1339 1340 1067 1064 1337 1338 1065
8 1339 1144 1145 1340 1337 1142 1143 1338
8 1067 1340 1196 720 1065 1338 1195 719
8 1340 1145 745 1196 1338 1143 746 1195
8 672 959 1341 1068 671 958 1339 1066
8 959 579 1146 1341 958 580 1144 1339
8 1068 1341 1342 1069 1066 1339 1340 1067
8 1341 1146 1147 1342 1339 1144 1145 1340
8 1069 1342 1197 721 1067 1340 1196 720
8 1342 1147 744 1197 1340 1145 745 1196
8 673 960 1343 1070 672 959 1341 1068
8 960 578 1148 1343 959 579 1146 1341
8 1070 1343 1344 1071 1068 1341 1342 1069
8 1343 1148 1149 1344 1341 1146 1147 1342
8 1071 1344 1198 722 1069 1342 1197 721
8 1344 1149 743 1198 1342 1147 744 1197
8 674 961 1345 1072 673 960 1343 1070
8 961 577 1150 1345 960 578 1148 1343
8 1072 1345 1346 1073 1070 1343 1344 1071
8 1345 1150 1151 1346 1343 1148 1149 1344
8 1073 1346 1199 723 1071 1344 1198 722
8 1346 1151 742 1199 1344 1149 743 1198
8 675 962 1347 1074 674 961 1345 1072
8 962 576 1152 1347 961 577 1150 1345
8 1074 1347 1348 1075 1072 1345 1346 1073
8 1347 1152 1153 1348 1345 1150 1151 1346
8 1075 1348 1200 724 1073 1346 1199 723
8 1348 1153 741 1200 1346 1151 742 1199
8 676 963 1349 1076 675 962 1347 1074
8 963 575 1154 1349 962 576 1152 1347
8 1076 1349 1350 1077 1074 1347 1348 1075
8 1349 1154 1155 1350 1347 1152 1153 1348
8 1077 1350 1201 725 1075 1348 1200 724
8 1350 1155 740 1201 1348 1153 741 1200
8 677 964 1351 1078 676 963 1349 1076
8 964 574 1156 1351 963 575 1154 1349
8 1078 1351 1352 1079 1076 1349 1350 1077
8 1351 1156 1157 1352 1349 1154 1155 1350
8 1079 1352 1202 726 1077 1350 1201 725
8 1352 1157 739 1202 1350 1155 740 1201
8 678 965 1353 1080 677 964 1351 1078
8 965 573 1158 1353 964 574 1156 1351
8 1080 1353 1354 1081 1078 1351 1352 1079
8 1353 1158 1159 1354 1351 1156 1157 1352
8 1081 1354 1203 727 1079 1352 1202 726
8 1354 1159 738 1203 1352 1157 739 1202
8 679 966 1355 1082 678 965 1353 1080
8 966 572 1160 1355 965 573 1158 1353
8 1082 1355 1356 1083 1080 1353 1354 1081
8 1355 1160 1161 1356 1353 1158 1159 1354
8 1083 1356 1204 728 1081 1354 1203 727
8 1356 1161 737 1204 1354 1159 738 1203
8 680 967 1357 1084 679 966 1355 1082
8 967 571 1162 1357 966 572 1160 1355
8 1084 1357 1358 1085 1082 1355 1356 1083
8 1357 1162 1163 1358 1355 1160 1161 1356
8 1085 1358 1205 729 1083 1356 1204 728
8 1358 1163 736 1205 1356 1161 737 1204
8 681 968 1359 1086 680 967 1357 1084
8 968 570 1164 1359 967 571 1162 1357
8 1086 1359 1360 1087 1084 1357 1358 1085
8 1359 1164 1165 1360 1357 1162 1163 1358
8 1087 1360 1206 730 1085 1358 1205 729
8 1360 1165 735 1206 1358 1163 736 1205
8 682 969 1361 1088 681 968 1359 1086
8 969 569 1166 1361 968 570 1164 1359
8 1088 1361 1362 1089 1086 1359 1360 1087
8 1361 1166 1167 1362 1359 1164 1165 1360
8 1089 1362 1207 731 1087 1360 1206 730
8 1362 1167 734 1207 1360 1165 735 1206
8 683 970 1363 1090 682 969 1361 1088
8 970 568 1168 1363 969 569 1166 1361
8 1090 1363 1364 1091 1088 1361 1362 1089
8 1363 1168 1169 1364 1361 1166 1167 1362
8 1091 1364 1208 732 1089 1362 1207 731
8 1364 1169 733 1208 1362 1167 734 1207
8 509 523 1012 692 683 970 1363 1090
8 523 512 690 1012 970 568 1168 1363
8 692 1012 1013 693 1090 1363 1364 1091
8 1012 690 689 1013 1363 1168 1169 1364
8 693 1013 691 516 1091 1364 1208 732
8 1013 689 515 691 1364 1169 733 1208
8 1466 1792 2069 1636 1365 1377 1632 1382
8 1792 1506 1714 2069 1377 1366 1378 1632
8 1636 2069 2070 1637 1382 1632 1633 1381
8 2069 1714 1715 2070 1632 1378 1379 1633
8 1637 2070 1831 1389 1381 1633 1380 1368
8 2070 1715 1505 1831 1633 1379 1367 1380
8 1465 1793 2071 1638 1466 1792 2069 1636
8 1793 1507 1716 2071 1792 1506 1714 2069
8 1638 2071 2072 1639 1636 2069 2070 1637
8 2071 1716 1717 2072 2069 1714 1715 2070
8 1639 2072 1832 1390 1637 2070 1831 1389
8 2072 1717 1504 1832 2070 1715 1505 1831
8 1464 1794 2073 1640 1465 1793 2071 1638
8 1794 1508 1718 2073 1793 1507 1716 2071
8 1640 2073 2074 1641 1638 2071 2072 1639
8 2073 1718 1719 2074 2071 1716 1717 2072
8 1641 2074 1833 1391 1639 2072 1832 1390
8 2074 1719 1503 1833 2072 1717 1504 1832
8 1463 1795 2075 1642 1464 1794 2073 1640
8 1795 1509 1720 2075 1794 1508 1718 2073
8 1642 2075 2076 1643 1640 2073 2074 1641
8 2075 1720 1721 2076 2073 1718 1719 2074
8 1643 2076 1834 1392 1641 2074 1833 1391
8 2076 1721 1502 1834 2074 1719 1503 1833
8 1462 1796 2077 1644 1463 1795 2075 1642
8 1796 1510 1722 2077 1795 1509 1720 2075
8 1644 2077 2078 1645 1642 2075 2076 1643
8 2077 1722 1723 2078 2075 1720 1721 2076
8 1645 2078 1835 1393 1643 2076 1834 1392
8 2078 1723 1501 1835 2076 1721 1502 1834
8 1461 1797 2079 1646 1462 1796 2077 1644
8 1797 1511 1724 2079 1796 1510 1722 2077
8 1646 2079 2080 1647 1644 2077 2078 1645
8 2079 1724 1725 2080 2077 1722 1723 2078
8 1647 2080 1836 1394 1645 2078 1835 1393
8 2080 1725 1500 1836 2078 1723 1501 1835
8 1460 1798 2081 1648 1461 1797 2079 1646
8 1798 1512 1726 2081 1797 1511 1724 2079
8 1648 2081 2082 1649 1646 2079 2080 1647
8 2081 1726 1727 2082 2079 1724 1725 2080
8 1649 2082 1837 1395 1647 2080 1836 1394
8 2082 1727 1499 1837 2080 1725 1500 1836
8 1459 1799 2083 1650 1460 1798 2081 1648
8 1799 1513 1728 2083 1798 1512 1726 2081
8 1650 2083 2084 1651 1648 2081 2082 1649
8 2083 1728 1729 2084 2081 1726 1727 2082
8 1651 2084 1838 1396 1649 2082 1837 1395
8 2084 1729 1498 1838 2082 1727 1499 1837
8 1458 1800 2085 1652 1459 1799 2083 1650
8 1800 1514 1730 2085 1799 1513 1728 2083
8 1652 2085 2086 1653 1650 2083 2084 1651
8 2085 1730 1731 2086 2083 1728 1729 2084
8 1653 2086 1839 1397 1651 2084 1838 1396
8 2086 1731 1497 1839 2084 1729 1498 1838
8 1457 1801 2087 1654 1458 1800 2085 1652
8 1801 8 1732 2087 1800 1514 1730 2085
8 1654 2087 2088 1655 1652 2085 2086 1653
8 2087 1732 1733 2088 2085 1730 1731 2086
8 1655 2088 1840 1398 1653 2086 1839 1397
8 2088 1733 1496 1840 2086 1731 1497 1839
8 1456 1802 2089 1656 1457 1801 2087 1654
8 1802 1515 1734 2089 1801 8 1732 2087
8 1656 2089 2090 1657 1654 2087 2088 1655
8 2089 1734 1735 2090 2087 1732 1733 2088
8 1657 2090 1841 1399 1655 2088 1840 1398
8 2090 1735 1495 1841 2088 1733 1496 1840
8 1455 1803 2091 1658 1456 1802 2089 1656
8 1803 1516 1736 2091 1802 1515 1734 2089
8 1658 2091 2092 1659 1656 2089 2090 1657
8 2091 1736 1737 2092 2089 1734 1735 2090
8 1659 2092 1842 1400 1657 2090 1841 1399
8 2092 1737 1494 1842 2090 1735 1495 1841
8 1454 1804 2093 1660 1455 1803 2091 1658
8 1804 1517 1738 2093 1803 1516 1736 2091
8 1660 2093 2094 1661 1658 2091 2092 1659
8 2093 1738 1739 2094 2091 1736 1737 2092
8 1661 2094 1843 1401 1659 2092 1842 1400
8 2094 1739 1493 1843 2092 1737 1494 1842
8 1453 1805 2095 1662 1454 1804 2093 1660
8 1805 1518 1740 2095 1804 1517 1738 2093
8 1662 2095 2096 1663 1660 2093 2094 1661
8 2095 1740 1741 2096 2093 1738 1739 2094
8 1663 2096 1844 1402 1661 2094 1843 1401
8 2096 1741 1492 1844 2094 1739 1493 1843
8 1452 1806 2097 1664 1453 1805 2095 1662
8 1806 1519 1742 2097 1805 1518 1740 2095
8 1664 2097 2098 1665 1662 2095 2096 1663
8 2097 1742 1743 2098 2095 1740 1741 2096
8 1665 2098 1845 1403 1663 2096 1844 1402
8 2098 1743 1491 1845 2096 1741 1492 1844
8 1451 1807 2099 1666 1452 1806 2097 1664
8 1807 1520 1744 2099 1806 1519 1742 2097
8 1666 2099 2100 1667 1664 2097 2098 1665
8 2099 1744 1745 2100 2097 1742 1743 2098
8 1667 2100 1846 1404 1665 2098 1845 1403
8 2100 1745 1490 1846 2098 1743 1491 1845
8 1450 1808 2101 1668 1451 1807 2099 1666
8 1808 1521 1746 2101 1807 1520 1744 2099
8 1668 2101 2102 1669 1666 2099 2100 1667
8 2101 1746 1747 2102 2099 1744 1745 2100
8 1669 2102 1847 1405 1667 2100 1846 1404
8 2102 1747 1489 1847 2100 1745 1490 1846
8 1449 1809 2103 1670 1450 1808 2101 1668
8 1809 1522 1748 2103 1808 1521 1746 2101
8 1670 2103 2104 1671 1668 2101 2102 1669
8 2103 1748 1749 2104 2101 1746 1747 2102
8 1671 2104 1848 1406 1669 2102 1847 1405
8 2104 1749 1488 1848 2102 1747 1489 1847
8 1448 1810 2105 1672 1449 1809 2103 1670
8 1810 1523 1750 2105 1809 1522 1748 2103
8 1672 2105 2106 1673 1670 2103 2104 1671
8 2105 1750 1751 2106 2103 1748 1749 2104
8 1673 2106 1849 1407 1671 2104 1848 1406
8 2106 1751 1487 1849 2104 1749 1488 1848
8 1447 1811 2107 1674 1448 1810 2105 1672
8 1811 1524 1752 2107 1810 1523 1750 2105
8 1674 2107 2108 1675 1672 2105 2106 1673
8 2107 1752 1753 2108 2105 1750 1751 2106
8 1675 2108 1850 1408 1673 2106 1849 1407
8 2108 1753 1486 1850 2106 1751 1487 1849
8 1446 1812 2109 1676 1447 1811 2107 1674
8 1812 1525 1754 2109 1811 1524 1752 2107
8 1676 2109 2110 1677 1674 2107 2108 1675
8 2109 1754 1755 2110 2107 1752 1753 2108
8 1677 2110 1851 1409 1675 2108 1850 1408
8 2110 1755 1485 1851 2108 1753 1486 1850
8 1445 1813 2111 1678 1446 1812 2109 1676
8 1813 1526 1756 2111 1812 1525 1754 2109
8 1678 2111 2112 1679 1676 2109 2110 1677
8 2111 1756 1757 2112 2109 1754 1755 2110
8 1679 2112 1852 1410 1677 2110 1851 1409
8 2112 1757 1484 1852 2110 1755 1485 1851
8 1444 1814 2113 1680 1445 1813 2111 1678
8 1814 1527 1758 2113 1813 1526 1756 2111
8 1680 2113 2114 1681 1678 2111 2112 1679
8 2113 1758 1759 2114 2111 1756 1757 2112
8 1681 2114 1853 1411 1679 2112 1852 1410
8 2114 1759 1483 1853 2112 1757 1484 1852
8 1443 1815 2115 1682 1444 1814 2113 1680
8 1815 1528 1760 2115 1814 1527 1758 2113
8 1682 2115 2116 1683 1680 2113 2114 1681
8 2115 1760 1761 2116 2113 1758 1759 2114
8 1683 2116 1854 1412 1681 2114 1853 1411
8 2116 1761 1482 1854 2114 1759 1483 1853
8 1442 1816 2117 1684 1443 1815 2115 1682
8 1816 1529 1762 2117 1815 1528 1760 2115
8 1684 2117 2118 1685 1682 2115 2116 1683
8 2117 1762 1763 2118 2115 1760 1761 2116
8 1685 2118 1855 1413 1683 2116 1854 1412
8 2118 1763 1481 1855 2116 1761 1482 1854
8 1441 1817 2119 1686 1442 1816 2117 1684
8 1817 1530 1764 2119 1816 1529 1762 2117
8 1686 2119 2120 1687 1684 2117 2118 1685
8 2119 1764 1765 2120 2117 1762 1763 2118
8 1687 2120 1856 1414 1685 2118 1855 1413
8 2120 1765 1480 1856 2118 1763 1481 1855
8 1440 1818 2121 1688 1441 1817 2119 1686
8 1818 1531 1766 2121 1817 1530 1764 2119
8 1688 2121 2122 1689 1686 2119 2120 1687
8 2121 1766 1767 2122 2119 1764 1765 2120
8 1689 2122 1857 1415 1687 2120 1856 1414
8 2122 1767 1479 1857 2120 1765 1480 1856
8 1439 1819 2123 1690 1440 1818 2121 1688
8 1819 1532 1768 2123 1818 1531 1766 2121
8 1690 2123 2124 1691 1688 2121 2122 1689
8 2123 1768 1769 2124 2121 1766 1767 2122
8 1691 2124 1858 1416 1689 2122 1857 1415
8 2124 1769 1478 1858 2122 1767 1479 1857
8 1438 1820 2125 1692 1439 1819 2123 1690
8 1820 1533 1770 2125 1819 1532 1768 2123
8 1692 2125 2126 1693 1690 2123 2124 1691
8 2125 1770 1771 2126 2123 1768 1769 2124
8 1693 2126 1859 1417 1691 2124 1858 1416
8 2126 1771 1477 1859 2124 1769 1478 1858
8 1437 1821 2127 1694 1438 1820 2125 1692
8 1821 1534 1772 2127 1820 1533 1770 2125
8 1694 2127 2128 1695 1692 2125 2126 1693
8 2127 1772 1773 2128 2125 1770 1771 2126
8 1695 2128 1860 1418 1693 2126 1859 1417
8 2128 1773 1476 1860 2126 1771 1477 1859
8 1436 1822 2129 1696 1437 1821 2127 1694
8 1822 1535 1774 2129 1821 1534 1772 2127
8 1696 2129 2130 1697 1694 2127 2128 1695
8 2129 1774 1775 2130 2127 1772 1773 2128
8 1697 2130 1861 1419 1695 2128 1860 1418
8 2130 1775 1475 1861 2128 1773 1476 1860
8 1435 1823 2131 1698 1436 1822 2129 1696
8 1823 1536 1776 2131 1822 1535 1774 2129
8 1698 2131 2132 1699 1696 2129 2130 1697
8 2131 1776 1777 2132 2129 1774 1775 2130
8 1699 2132 1862 1420 1697 2130 1861 1419
8 2132 1777 1474 1862 2130 1775 1475 1861
8 1434 1824 2133 1700 1435 1823 2131 1698
8 1824 1537 1778 2133 1823 1536 1776 2131
8 1700 2133 2134 1701 1698 2131 2132 1699
8 2133 1778 1779 2134 2131 1776 1777 2132
8 1701 2134 1863 1421 1699 2132 1862 1420
8 2134 1779 1473 1863 2132 1777 1474 1862
8 1433 1825 2135 1702 1434 1824 2133 1700
8 1825 1538 1780 2135 1824 1537 1778 2133
8 1702 2135 2136 1703 1700 2133 2134 1701
8 2135 1780 1781 2136 2133 1778 1779 2134
8 1703 2136 1864 1422 1701 2134 1863 1421
8 2136 1781 1472 1864 2134 1779 1473 1863
8 1432 1826 2137 1704 1433 1825 2135 1702
8 1826 1539 1782 2137 1825 1538 1780 2135
8 1704 2137 2138 1705 1702 2135 2136 1703
8 2137 1782 1783 2138 2135 1780 1781 2136
8 1705 2138 1865 1423 1703 2136 1864 1422
8 2138 1783 1471 1865 2136 1781 1472 1864
8 1431 1827 2139 1706 1432 1826 2137 1704
8 1827 1540 1784 2139 1826 1539 1782 2137
8 1706 2139 2140 1707 1704 2137 2138 1705
8 2139 1784 1785 2140 2137 1782 1783 2138
8 1707 2140 1866 1424 1705 2138 1865 1423
8 2140 1785 1470 1866 2138 1783 1471 1865
8 1430 1828 2141 1708 1431 1827 2139 1706
8 1828 1541 1786 2141 1827 1540 1784 2139
8 1708 2141 2142 1709 1706 2139 2140 1707
8 2141 1786 1787 2142 2139 1784 1785 2140
8 1709 2142 1867 1425 1707 2140 1866 1424
8 2142 1787 1469 1867 2140 1785 1470 1866
8 1429 1829 2143 1710 1430 1828 2141 1708
8 1829 1542 1788 2143 1828 1541 1786 2141
8 1710 2143 2144 1711 1708 2141 2142 1709
8 2143 1788 1789 2144 2141 1786 1787 2142
8 1711 2144 1868 1426 1709 2142 1867 1425
8 2144 1789 1468 1868 2142 1787 1469 1867
8 1428 1830 2145 1712 1429 1829 2143 1710
8 1830 1543 1790 2145 1829 1542 1788 2143
8 1712 2145 2146 1713 1710 2143 2144 1711
8 2145 1790 1791 2146 2143 1788 1789 2144
8 1713 2146 1869 1427 1711 2144 1868 1426
8 2146 1791 1467 1869 2144 1789 1468 1868
8 1372 1383 1634 1387 1428 1830 2145 1712
8 1383 1369 1385 1634 1830 1543 1790 2145
8 1387 1634 1635 1388 1712 2145 2146 1713
8 1634 1385 1384 1635 2145 1790 1791 2146
8 1388 1635 1386 1371 1713 2146 1869 1427
8 1635 1384 1370 1386 2146 1791 1467 1869
8 1506 1792 2147 1874 1366 1377 1870 1548
8 1792 1466 1952 2147 1377 1365 1544 1870
8 1874 2147 2148 1875 1548 1870 1871 1547
8 2147 1952 1953 2148 1870 1544 1545 1871
8 1875 2148 2030 1554 1547 1871 1546 1374
8 2148 1953 1631 2030 1871 1545 1373 1546
8 1507 1793 2149 1876 1506 1792 2147 1874
8 1793 1465 1954 2149 1792 1466 1952 2147
8 1876 2149 2150 1877 1874 2147 2148 1875
8 2149 1954 1955 2150 2147 1952 1953 2148
8 1877 2150 2031 1555 1875 2148 2030 1554
8 2150 1955 1630 2031 2148 1953 1631 2030
8 1508 1794 2151 1878 1507 1793 2149 1876
8 1794 1464 1956 2151 1793 1465 1954 2149
8 1878 2151 2152 1879 1876 2149 2150 1877
8 2151 1956 1957 2152 2149 1954 1955 2150
8 1879 2152 2032 1556 1877 2150 2031 1555
8 2152 1957 1629 2032 2150 1955 1630 2031
8 1509 1795 2153 1880 1508 1794 2151 1878
8 1795 1463 1958 2153 1794 1464 1956 2151
8 1880 2153 2154 1881 1878 2151 2152 1879
8 2153 1958 1959 2154 2151 1956 1957 2152
8 1881 2154 2033 1557 1879 2152 2032 1556
8 2154 1959 1628 2033 2152 1957 1629 2032
8 1510 1796 2155 1882 1509 1795 2153 1880
8 1796 1462 1960 2155 1795 1463 1958 2153
8 1882 2155 2156 1883 1880 2153 2154 1881
8 2155 1960 1961 2156 2153 1958 1959 2154
8 1883 2156 2034 1558 1881 2154 2033 1557
8 2156 1961 1627 2034 2154 1959 1628 2033
8 1511 1797 2157 1884 1510 1796 2155 1882
8 1797 1461 1962 2157 1796 1462 1960 2155
8 1884 2157 2158 1885 1882 2155 2156 1883
8 2157 1962 1963 2158 2155 1960 1961 2156
8 1885 2158 2035 1559 1883 2156 2034 1558
8 2158 1963 1626 2035 2156 1961 1627 2034
8 1512 1798 2159 1886 1511 1797 2157 1884
8 1798 1460 1964 2159 1797 1461 1962 2157
8 1886 2159 2160 1887 1884 2157 2158 1885
8 2159 1964 1965 2160 2157 1962 1963 2158
8 1887 2160 2036 1560 1885 2158 2035 1559
8 2160 1965 1625 2036 2158 1963 1626 2035
8 1513 1799 2161 1888 1512 1798 2159 1886
8 1799 1459 1966 2161 1798 1460 1964 2159
8 1888 2161 2162 1889 1886 2159 2160 1887
8 2161 1966 1967 2162 2159 1964 1965 2160
8 1889 2162 2037 1561 1887 2160 2036 1560
8 2162 1967 1624 2037 2160 1965 1625 2036
8 1514 1800 2163 1890 1513 1799 2161 1888
8 1800 1458 1968 2163 1799 1459 1966 2161
8 1890 2163 2164 1891 1888 2161 2162 1889
8 2163 1968 1969 2164 2161 1966 1967 2162
8 1891 2164 2038 1562 1889 2162 2037 1561
8 2164 1969 1623 2038 2162 1967 1624 2037
8 8 1801 2165 1892 1514 1800 2163 1890
8 1801 1457 1970 2165 1800 1458 1968 2163
8 1892 2165 2166 1893 1890 2163 2164 1891
8 2165 1970 1971 2166 2163 1968 1969 2164
8 1893 2166 2039 1563 1891 2164 2038 1562
8 2166 1971 1622 2039 2164 1969 1623 2038
8 1515 1802 2167 1894 8 1801 2165 1892
8 1802 1456 1972 2167 1801 1457 1970 2165
8 1894 2167 2168 1895 1892 2165 2166 1893
8 2167 1972 1973 2168 2165 1970 1971 2166
8 1895 2168 2040 1564 1893 2166 2039 1563
8 2168 1973 1621 2040 2166 1971 1622 2039
8 1516 1803 2169 1896 1515 1802 2167 1894
8 1803 1455 1974 2169 1802 1456 1972 2167
8 1896 2169 2170 1897 1894 2167 2168 1895
8 2169 1974 1975 2170 2167 1972 1973 2168
8 1897 2170 2041 1565 1895 2168 2040 1564
8 2170 1975 1620 2041 2168 1973 1621 2040
8 1517 1804 2171 1898 1516 1803 2169 1896
8 1804 1454 1976 2171 1803 1455 1974 2169
8 1898 2171 2172 1899 1896 2169 2170 1897
8 2171 1976 1977 2172 2169 1974 1975 2170
8 1899 2172 2042 1566 1897 2170 2041 1565
8 2172 1977 1619 2042 2170 1975 1620 2041
8 1518 1805 2173 1900 1517 1804 2171 1898
8 1805 1453 1978 2173 1804 1454 1976 2171
8 1900 2173 2174 1901 1898 2171 2172 1899
8 2173 1978 1979 2174 2171 1976 1977 2172
8 1901 2174 2043 1567 1899 2172 2042 1566
8 2174 1979 1618 2043 2172 1977 1619 2042
8 1519 1806 2175 1902 1518 1805 2173 1900
8 1806 1452 1980 2175 1805 1453 1978 2173
8 1902 2175 2176 1903 1900 2173 2174 1901
8 2175 1980 1981 2176 2173 1978 1979 2174
8 1903 2176 2044 1568 1901 2174 2043 1567
8 2176 1981 1617 2044 2174 1979 1618 2043
8 1520 1807 2177 1904 1519 1806 2175 1902
8 1807 1451 1982 2177 1806 1452 1980 2175
8 1904 2177 2178 1905 1902 2175 2176 1903
8 2177 1982 1983 2178 2175 1980 1981 2176
8 1905 2178 2045 1569 1903 2176 2044 1568
8 2178 1983 1616 2045 2176 1981 1617 2044
8 1521 1808 2179 1906 1520 1807 2177 1904
8 1808 1450 1984 2179 1807 1451 1982 2177
8 1906 2179 2180 1907 1904 2177 2178 1905
8 2179 1984 1985 2180 2177 1982 1983 2178
8 1907 2180 2046 1570 1905 2178 2045 1569
8 2180 1985 1615 2046 2178 1983 1616 2045
8 1522 1809 2181 1908 1521 1808 2179 1906
8 1809 1449 1986 2181 1808 1450 1984 2179
8 1908 2181 2182 1909 1906 2179 2180 1907
8 2181 1986 1987 2182 2179 1984 1985 2180
8 1909 2182 2047 1571 1907 2180 2046 1570
8 2182 1987 1614 2047 2180 1985 1615 2046
8 1523 1810 2183 1910 1522 1809 2181 1908
8 1810 1448 1988 2183 1809 1449 1986 2181
8 1910 2183 2184 1911 1908 2181 2182 1909
8 2183 1988 1989 2184 2181 1986 1987 2182
8 1911 2184 2048 1572 1909 2182 2047 1571
8 2184 1989 1613 2048 2182 1987 1614 2047
8 1524 1811 2185 1912 1523 1810 2183 1910
8 1811 1447 1990 2185 1810 1448 1988 2183
8 1912 2185 2186 1913 1910 2183 2184 1911
8 2185 1990 1991 2186 2183 1988 1989 2184
8 1913 2186 2049 1573 1911 2184 2048 1572
8 2186 1991 1612 2049 2184 1989 1613 2048
8 1525 1812 2187 1914 1524 1811 2185 1912
8 1812 1446 1992 2187 1811 1447 1990 2185
8 1914 2187 2188 1915 1912 2185 2186 1913
8 2187 1992 1993 2188 2185 1990 1991 2186
8 1915 2188 2050 1574 1913 2186 2049 1573
8 2188 1993 1611 2050 2186 1991 1612 2049
8 1526 1813 2189 1916 1525 1812 2187 1914
8 1813 1445 1994 2189 1812 1446 1992 2187
8 1916 2189 2190 1917 1914 2187 2188 1915
8 2189 1994 1995 2190 2187 1992 1993 2188
8 1917 2190 2051 1575 1915 2188 2050 1574
8 2190 1995 1610 2051 2188 1993 1611 2050
8 1527 1814 2191 1918 1526 1813 2189 1916
8 1814 1444 1996 2191 1813 1445 1994 2189
8 1918 2191 2192 1919 1916 2189 2190 1917
8 2191 1996 1997 2192 2189 1994 1995 2190
8 1919 2192 2052 1576 1917 2190 2051 1575
8 2192 1997 1609 2052 2190 1995 1610 2051
8 1528 1815 2193 1920 1527 1814 2191 1918
8 1815 1443 1998 2193 1814 1444 1996 2191
8 1920 2193 2194 1921 1918 2191 2192 1919
8 2193 1998 1999 2194 2191 1996 1997 2192
8 1921 2194 2053 1577 1919 2192 2052 1576
8 2194 1999 1608 2053 2192 1997 1609 2052
8 1529 1816 2195 1922 1528 1815 2193 1920
8 1816 1442 2000 2195 1815 1443 1998 2193
8 1922 2195 2196 1923 1920 2193 2194 1921
8 2195 2000 2001 2196 2193 1998 1999 2194
8 1923 2196 2054 1578 1921 2194 2053 1577
8 2196 2001 1607 2054 2194 1999 1608 2053
8 1530 1817 2197 1924 1529 1816 2195 1922
8 1817 1441 2002 2197 1816 1442 2000 2195
8 1924 2197 2198 1925 1922 2195 2196 1923
8 2197 2002 2003 2198 2195 2000 2001 2196
8 1925 2198 2055 1579 1923 2196 2054 1578
8 2198 2003 1606 2055 2196 2001 1607 2054
8 1531 1818 2199 1926 1530 1817 2197 1924
8 1818 1440 2004 2199 1817 1441 2002 2197
8 1926 2199 2200 1927 1924 2197 2198 1925
8 2199 2004 2005 2200 2197 2002 2003 2198
8 1927 2200 2056 1580 1925 2198 2055 1579
8 2200 2005 1605 2056 2198 2003 1606 2055
8 1532 1819 2201 1928 1531 1818 2199 1926
8 1819 1439 2006 2201 1818 1440 2004 2199
8 1928 2201 2202 1929 1926 2199 2200 1927
8 2201 2006 2007 2202 2199 2004 2005 2200
8 1929 2202 2057 1581 1927 2200 2056 1580
8 2202 2007 1604 2057 2200 2005 1605 2056
8 1533 1820 2203 1930 1532 1819 2201 1928
8 1820 1438 2008 2203 1819 1439 2006 2201
8 1930 2203 2204 1931 1928 2201 2202 1929
8 2203 2008 2009 2204 2201 2006 2007 2202
8 1931 2204 2058 1582 1929 2202 2057 1581
8 2204 2009 1603 2058 2202 2007 1604 2057
8 1534 1821 2205 1932 1533 1820 2203 1930
8 1821 1437 2010 2205 1820 1438 2008 2203
8 1932 2205 2206 1933 1930 2203 2204 1931
8 2205 2010 2011 2206 2203 2008 2009 2204
8 1933 2206 2059 1583 1931 2204 2058 1582
8 2206 2011 1602 2059 2204 2009 1603 2058
8 1535 1822 2207 1934 1534 1821 2205 1932
8 1822 1436 2012 2207 1821 1437 2010 2205
8 1934 2207 2208 1935 1932 2205 2206 1933
8 2207 2012 2013 2208 2205 2010 2011 2206
8 1935 2208 2060 1584 1933 2206 2059 1583
8 2208 2013 1601 2060 2206 2011 1602 2059
8 1536 1823 2209 1936 1535 1822 2207 1934
8 1823 1435 2014 2209 1822 1436 2012 2207
8 1936 2209 2210 1937 1934 2207 2208 1935
8 2209 2014 2015 2210 2207 2012 2013 2208
8 1937 2210 2061 1585 1935 2208 2060 1584
8 2210 2015 1600 2061 2208 2013 1601 2060
8 1537 1824 2211 1938 1536 1823 2209 1936
8 1824 1434 2016 2211 1823 1435 2014 2209
8 1938 2211 2212 1939 1936 2209 2210 1937
8 2211 2016 2017 2212 2209 2014 2015 2210
8 1939 2212 2062 1586 1937 2210 2061 1585
8 2212 2017 1599 2062 2210 2015 1600 2061
8 1538 1825 2213 1940 1537 1824 2211 1938
8 1825 1433 2018 2213 1824 1434 2016 2211
8 1940 2213 2214 1941 1938 2211 2212 1939
8 2213 2018 2019 2214 2211 2016 2017 2212
8 1941 2214 2063 1587 1939 2212 2062 1586
8 2214 2019 1598 2063 2212 2017 1599 2062
8 1539 1826 2215 1942 1538 1825 2213 1940
8 1826 1432 2020 2215 1825 1433 2018 2213
8 1942 2215 2216 1943 1940 2213 2214 1941
8 2215 2020 2021 2216 2213 2018 2019 2214
8 1943 2216 2064 1588 1941 2214 2063 1587
8 2216 2021 1597 2064 2214 2019 1598 2063
8 1540 1827 2217 1944 1539 1826 2215 1942
8 1827 1431 2022 2217 1826 1432 2020 2215
8 1944 2217 2218 1945 1942 2215 2216 1943
8 2217 2022 2023 2218 2215 2020 2021 2216
8 1945 2218 2065 1589 1943 2216 2064 1588
8 2218 2023 1596 2065 2216 2021 1597 2064
8 1541 1828 2219 1946 1540 1827 2217 1944
8 1828 1430 2024 2219 1827 1431 2022 2217
8 1946 2219 2220 1947 1944 2217 2218 1945
8 2219 2024 2025 2220 2217 2022 2023 2218
8 1947 2220 2066 1590 1945 2218 2065 1589
8 2220 2025 1595 2066 2218 2023 1596 2065
8 1542 1829 2221 1948 1541 1828 2219 1946
8 1829 1429 2026 2221 1828 1430 2024 2219
8 1948 2221 2222 1949 1946 2219 2220 1947
8 2221 2026 2027 2222 2219 2024 2025 2220
8 1949 2222 2067 1591 1947 2220 2066 1590
8 2222 2027 1594 2067 2220 2025 1595 2066
8 1543 1830 2223 1950 1542 1829 2221 1948
8 1830 1428 2028 2223 1829 1429 2026 2221
8 1950 2223 2224 1951 1948 2221 2222 1949
8 2223 2028 2029 2224 2221 2026 2027 2222
8 1951 2224 2068 1592 1949 2222 2067 1591
8 2224 2029 1593 2068 2222 2027 1594 2067
8 1369 1383 1872 1552 1543 1830 2223 1950
8 1383 1372 1550 1872 1830 1428 2028 2223
8 1552 1872 1873 1553 1950 2223 2224 1951
8 1872 1550 1549 1873 2223 2028 2029 2224
8 1553 1873 1551 1376 1951 2224 2068 1592
8 1873 1549 1375 1551 2224 2029 1593 2068
8 2281 2456 2609 2366 2225 2235 2336 2250
8 2456 2457 2610 2609 2235 2236 2337 2336
8 2457 2458 2611 2610 2236 2237 2338 2337
8 2458 2291 2411 2611 2237 2226 2238 2338
8 2366 2609 2612 2367 2250 2336 2339 2249
8 2609 2610 2613 2612 2336 2337 2340 2339
8 2610 2611 2614 2613 2337 2338 2341 2340
8 2611 2411 2412 2614 2338 2238 2239 2341
8 2367 2612 2615 2368 2249 2339 2342 2248
8 2612 2613 2616 2615 2339 2340 2343 2342
8 2613 2614 2617 2616 2340 2341 2344 2343
8 2614 2412 2413 2617 2341 2239 2240 2344
8 2368 2615 2618 2369 2248 2342 2345 2247
8 2615 2616 2619 2618 2342 2343 2346 2345
8 2616 2617 2620 2619 2343 2344 2347 2346
8 2617 2413 2414 2620 2344 2240 2241 2347
8 2369 2618 2621 2370 2247 2345 2348 2246
8 2618 2619 2622 2621 2345 2346 2349 2348
8 2619 2620 2623 2622 2346 2347 2350 2349
8 2620 2414 2415 2623 2347 2241 2242 2350
8 2370 2621 2483 2264 2246 2348 2245 2228
8 2621 2622 2484 2483 2348 2349 2244 2245
8 2622 2623 2485 2484 2349 2350 2243 2244
8 2623 2415 2290 2485 2350 2242 2227 2243
8 2280 2459 2624 2371 2281 2456 2609 2366
8 2459 2460 2625 2624 2456 2457 2610 2609
8 2460 2461 2626 2625 2457 2458 2611 2610
8 2461 2292 2416 2626 2458 2291 2411 2611
8 2371 2624 2627 2372 2366 2609 2612 2367
8 2624 2625 2628 2627 2609 2610 2613 2612
8 2625 2626 2629 2628 2610 2611 2614 2613
8 2626 2416 2417 2629 2611 2411 2412 2614
8 2372 2627 2630 2373 2367 2612 2615 2368
8 2627 2628 2631 2630 2612 2613 2616 2615
8 2628 2629 2632 2631 2613 2614 2617 2616
8 2629 2417 2418 2632 2614 2412 2413 2617
8 2373 2630 2633 2374 2368 2615 2618 2369
8 2630 2631 2634 2633 2615 2616 2619 2618
8 2631 2632 2635 2634 2616 2617 2620 2619
8 2632 2418 2419 2635 2617 2413 2414 2620
8 2374 2633 2636 2375 2369 2618 2621 2370
8 2633 2634 2637 2636 2618 2619 2622 2621
8 2634 2635 2638 2637 2619 2620 2623 2622
8 2635 2419 2420 2638 2620 2414 2415 2623
8 2375 2636 2486 2265 2370 2621 2483 2264
8 2636 2637 2487 2486 2621 2622 2484 2483
8 2637 2638 2488 2487 2622 2623 2485 2484
8 2638 2420 2289 2488 2623 2415 2290 2485
8 2279 2462 2639 2376 2280 2459 2624 2371
8 2462 2463 2640 2639 2459 2460 2625 2624
8 2463 2464 2641 2640 2460 2461 2626 2625
8 2464 2293 2421 2641 2461 2292 2416 2626
8 2376 2639 2642 2377 2371 2624 2627 2372
8 2639 2640 2643 2642 2624 2625 2628 2627
8 2640 2641 2644 2643 2625 2626 2629 2628
8 2641 2421 2422 2644 2626 2416 2417 2629
8 2377 2642 2645 2378 2372 2627 2630 2373
8 2642 2643 2646 2645 2627 2628 2631 2630
8 2643 2644 2647 2646 2628 2629 2632 2631
8 2644 2422 2423 2647 2629 2417 2418 2632
8 2378 2645 2648 2379 2373 2630 2633 2374
8 2645 2646 2649 2648 2630 2631 2634 2633
8 2646 2647 2650 2649 2631 2632 2635 2634
8 2647 2423 2424 2650 2632 2418 2419 2635
8 2379 2648 2651 2380 2374 2633 2636 2375
8 2648 2649 2652 2651 2633 2634 2637 2636
8 2649 2650 2653 2652 2634 2635 2638 2637
8 2650 2424 2425 2653 2635 2419 2420 2638
8 2380 2651 2489 2266 2375 2636 2486 2265
8 2651 2652 2490 2489 2636 2637 2487 2486
8 2652 2653 2491 2490 2637 2638 2488 2487
8 2653 2425 2288 2491 2638 2420 2289 2488
8 2278 2465 2654 2381 2279 2462 2639 2376
8 2465 2466 2655 2654 2462 2463 2640 2639
8 2466 2467 2656 2655 2463 2464 2641 2640
8 2467 2294 2426 2656 2464 2293 2421 2641
8 2381 2654 2657 2382 2376 2639 2642 2377
8 2654 2655 2658 2657 2639 2640 2643 2642
8 2655 2656 2659 2658 2640 2641 2644 2643
8 2656 2426 2427 2659 2641 2421 2422 2644
8 2382 2657 2660 2383 2377 2642 2645 2378
8 2657 2658 2661 2660 2642 2643 2646 2645
8 2658 2659 2662 2661 2643 2644 2647 2646
8 2659 2427 2428 2662 2644 2422 2423 2647
8 2383 2660 2663 2384 2378 2645 2648 2379
8 2660 2661 2664 2663 2645 2646 2649 2648
8 2661 2662 2665 2664 2646 2647 2650 2649
8 2662 2428 2429 2665 2647 2423 2424 2650
8 2384 2663 2666 2385 2379 2648 2651 2380
8 2663 2664 2667 2666 2648 2649 2652 2651
8 2664 2665 2668 2667 2649 2650 2653 2652
8 2665 2429 2430 2668 2650 2424 2425 2653
8 2385 2666 2492 2267 2380 2651 2489 2266
8 2666 2667 2493 2492 2651 2652 2490 2489
8 2667 2668 2494 2493 2652 2653 2491 2490
8 2668 2430 2287 2494 2653 2425 2288 2491
8 2277 2468 2669 2386 2278 2465 2654 2381
8 2468 2469 2670 2669 2465 2466 2655 2654
8 2469 2470 2671 2670 2466 2467 2656 2655
8 2470 2295 2431 2671 2467 2294 2426 2656
8 2386 2669 2672 2387 2381 2654 2657 2382
8 2669 2670 2673 2672 2654 2655 2658 2657
8 2670 2671 2674 2673 2655 2656 2659 2658
8 2671 2431 2432 2674 2656 2426 2427 2659
8 2387 2672 2675 2388 2382 2657 2660 2383
8 2672 2673 2676 2675 2657 2658 2661 2660
8 2673 2674 2677 2676 2658 2659 2662 2661
8 2674 2432 2433 2677 2659 2427 2428 2662
8 2388 2675 2678 2389 2383 2660 2663 2384
8 2675 2676 2679 2678 2660 2661 2664 2663
8 2676 2677 2680 2679 2661 2662 2665 2664
8 2677 2433 2434 2680 2662 2428 2429 2665
8 2389 2678 2681 2390 2384 2663 2666 2385
8 2678 2679 2682 2681 2663 2664 2667 2666
8 2679 2680 2683 2682 2664 2665 2668 2667
8 2680 2434 2435 2683 2665 2429 2430 2668
8 2390 2681 2495 2268 2385 2666 2492 2267
8 2681 2682 2496 2495 2666 2667 2493 2492
8 2682 2683 2497 2496 2667 2668 2494 2493
8 2683 2435 2286 2497 2668 2430 2287 2494
8 2276 2471 2684 2391 2277 2468 2669 2386
8 2471 2472 2685 2684 2468 2469 2670 2669
8 2472 2473 2686 2685 2469 2470 2671 2670
8 2473 2296 2436 2686 2470 2295 2431 2671
8 2391 2684 2687 2392 2386 2669 2672 2387
8 2684 2685 2688 2687 2669 2670 2673 2672
8 2685 2686 2689 2688 2670 2671 2674 2673
8 2686 2436 2437 2689 2671 2431 2432 2674
8 2392 2687 2690 2393 2387 2672 2675 2388
8 2687 2688 2691 2690 2672 2673 2676 2675
8 2688 2689 2692 2691 2673 2674 2677 2676
8 2689 2437 2438 2692 2674 2432 2433 2677
8 2393 2690 2693 2394 2388 2675 2678 2389
8 2690 2691 2694 2693 2675 2676 2679 2678
8 2691 2692 2695 2694 2676 2677 2680 2679
8 2692 2438 2439 2695 2677 2433 2434 2680
8 2394 2693 2696 2395 2389 2678 2681 2390
8 2693 2694 2697 2696 2678 2679 2682 2681
8 2694 2695 2698 2697 2679 2680 2683 2682
8 2695 2439 2440 2698 2680 2434 2435 2683
8 2395 2696 2498 2269 2390 2681 2495 2268
8 2696 2697 2499 2498 2681 2682 2496 2495
8 2697 2698 2500 2499 2682 2683 2497 2496
8 2698 2440 2285 2500 2683 2435 2286 2497
8 2275 2474 2699 2396 2276 2471 2684 2391
8 2474 2475 2700 2699 2471 2472 2685 2684
8 2475 2476 2701 2700 2472 2473 2686 2685
8 2476 2297 2441 2701 2473 2296 2436 2686
8 2396 2699 2702 2397 2391 2684 2687 2392
8 2699 2700 2703 2702 2684 2685 2688 2687
8 2700 2701 2704 2703 2685 2686 2689 2688
8 2701 2441 2442 2704 2686 2436 2437 2689
8 2397 2702 2705 2398 2392 2687 2690 2393
8 2702 2703 2706 2705 2687 2688 2691 2690
8 2703 2704 2707 2706 2688 2689 2692 2691
8 2704 2442 2443 2707 2689 2437 2438 2692
8 2398 2705 2708 2399 2393 2690 2693 2394
8 2705 2706 2709 2708 2690 2691 2694 2693
8 2706 2707 2710 2709 2691 2692 2695 2694
8 2707 2443 2444 2710 2692 2438 2439 2695
8 2399 2708 2711 2400 2394 2693 2696 2395
8 2708 2709 2712 2711 2693 2694 2697 2696
8 2709 2710 2713 2712 2694 2695 2698 2697
8 2710 2444 2445 2713 2695 2439 2440 2698
8 2400 2711 2501 2270 2395 2696 2498 2269
8 2711 2712 2502 2501 2696 2697 2499 2498
8 2712 2713 2503 2502 2697 2698 2500 2499
8 2713 2445 2284 2503 2698 2440 2285 2500
8 2274 2477 2714 2401 2275 2474 2699 2396
8 2477 2478 2715 2714 2474 2475 2700 2699
8 2478 2479 2716 2715 2475 2476 2701 2700
8 2479 2298 2446 2716 2476 2297 2441 2701
8 2401 2714 2717 2402 2396 2699 2702 2397
8 2714 2715 2718 2717 2699 2700 2703 2702
8 2715 2716 2719 2718 2700 2701 2704 2703
8 2716 2446 2447 2719 2701 2441 2442 2704
8 2402 2717 2720 2403 2397 2702 2705 2398
8 2717 2718 2721 2720 2702 2703 2706 2705
8 2718 2719 2722 2721 2703 2704 2707 2706
8 2719 2447 2448 2722 2704 2442 2443 2707
8 2403 2720 2723 2404 2398 2705 2708 2399
8 2720 2721 2724 2723 2705 2706 2709 2708
8 2721 2722 2725 2724 2706 2707 2710 2709
8 2722 2448 2449 2725 2707 2443 2444 2710
8 2404 2723 2726 2405 2399 2708 2711 2400
8 2723 2724 2727 2726 2708 2709 2712 2711
8 2724 2725 2728 2727 2709 2710 2713 2712
8 2725 2449 2450 2728 2710 2444 2445 2713
8 2405 2726 2504 2271 2400 2711 2501 2270
8 2726 2727 2505 2504 2711 2712 2502 2501
8 2727 2728 2506 2505 2712 2713 2503 2502
8 2728 2450 2283 2506 2713 2445 2284 2503
8 2273 2480 2729 2406 2274 2477 2714 2401
8 2480 2481 2730 2729 2477 2478 2715 2714
8 2481 2482 2731 2730 2478 2479 2716 2715
8 2482 2299 2451 2731 2479 2298 2446 2716
8 2406 2729 2732 2407 2401 2714 2717 2402
8 2729 2730 2733 2732 2714 2715 2718 2717
8 2730 2731 2734 2733 2715 2716 2719 2718
8 2731 2451 2452 2734 2716 2446 2447 2719
8 2407 2732 2735 2408 2402 2717 2720 2403
8 2732 2733 2736 2735 2717 2718 2721 2720
8 2733 2734 2737 2736 2718 2719 2722 2721
8 2734 2452 2453 2737 2719 2447 2448 2722
8 2408 2735 2738 2409 2403 2720 2723 2404
8 2735 2736 2739 2738 2720 2721 2724 2723
8 2736 2737 2740 2739 2721 2722 2725 2724
8 2737 2453 2454 2740 2722 2448 2449 2725
8 2409 2738 2741 2410 2404 2723 2726 2405
8 2738 2739 2742 2741 2723 2724 2727 2726
8 2739 2740 2743 2742 2724 2725 2728 2727
8 2740 2454 2455 2743 2725 2449 2450 2728
8 2410 2741 2507 2272 2405 2726 2504 2271
8 2741 2742 2508 2507 2726 2727 2505 2504
8 2742 2743 2509 2508 2727 2728 2506 2505
8 2743 2455 2282 2509 2728 2450 2283 2506
8 2230 2253 2351 2259 2273 2480 2729 2406
8 2253 2252 2352 2351 2480 2481 2730 2729
8 2252 2251 2353 2352 2481 2482 2731 2730
8 2251 2229 2258 2353 2482 2299 2451 2731
8 2259 2351 2354 2260 2406 2729 2732 2407
8 2351 2352 2355 2354 2729 2730 2733 2732
8 2352 2353 2356 2355 2730 2731 2734 2733
8 2353 2258 2257 2356 2731 2451 2452 2734
8 2260 2354 2357 2261 2407 2732 2735 2408
8 2354 2355 2358 2357 2732 2733 2736 2735
8 2355 2356 2359 2358 2733 2734 2737 2736
8 2356 2257 2256 2359 2734 2452 2453 2737
8 2261 2357 2360 2262 2408 2735 2738 2409
8 2357 2358 2361 2360 2735 2736 2739 2738
8 2358 2359 2362 2361 2736 2737 2740 2739
8 2359 2256 2255 2362 2737 2453 2454 2740
8 2262 2360 2363 2263 2409 2738 2741 2410
8 2360 2361 2364 2363 2738 2739 2742 2741
8 2361 2362 2365 2364 2739 2740 2743 2742
8 2362 2255 2254 2365 2740 2454 2455 2743
8 2263 2363 202 18 2410 2741 2507 2272
8 2363 2364 203 202 2741 2742 2508 2507
8 2364 2365 204 203 2742 2743 2509 2508
8 2365 2254 19 204 2743 2455 2282 2509
8 2291 2458 2744 2528 2226 2237 2510 2308
8 2458 2457 2745 2744 2237 2236 2511 2510
8 2457 2456 2746 2745 2236 2235 2512 2511
8 2456 2281 2555 2746 2235 2225 2300 2512
8 2528 2744 2747 2529 2308 2510 2513 2307
8 2744 2745 2748 2747 2510 2511 2514 2513
8 2745 2746 2749 2748 2511 2512 2515 2514
8 2746 2555 2556 2749 2512 2300 2301 2515
8 2529 2747 2750 2530 2307 2513 2516 2306
8 2747 2748 2751 2750 2513 2514 2517 2516
8 2748 2749 2752 2751 2514 2515 2518 2517
8 2749 2556 2557 2752 2515 2301 2302 2518
8 2530 2750 2582 2318 2306 2516 2305 2232
8 2750 2751 2583 2582 2516 2517 2304 2305
8 2751 2752 2584 2583 2517 2518 2303 2304
8 2752 2557 2335 2584 2518 2302 2231 2303
8 2292 2461 2753 2531 2291 2458 2744 2528
8 2461 2460 2754 2753 2458 2457 2745 2744
8 2460 2459 2755 2754 2457 2456 2746 2745
8 2459 2280 2558 2755 2456 2281 2555 2746
8 2531 2753 2756 2532 2528 2744 2747 2529
8 2753 2754 2757 2756 2744 2745 2748 2747
8 2754 2755 2758 2757 2745 2746 2749 2748
8 2755 2558 2559 2758 2746 2555 2556 2749
8 2532 2756 2759 2533 2529 2747 2750 2530
8 2756 2757 2760 2759 2747 2748 2751 2750
8 2757 2758 2761 2760 2748 2749 2752 2751
8 2758 2559 2560 2761 2749 2556 2557 2752
8 2533 2759 2585 2319 2530 2750 2582 2318
8 2759 2760 2586 2585 2750 2751 2583 2582
8 2760 2761 2587 2586 2751 2752 2584 2583
8 2761 2560 2334 2587 2752 2557 2335 2584
8 2293 2464 2762 2534 2292 2461 2753 2531
8 2464 2463 2763 2762 2461 2460 2754 2753
8 2463 2462 2764 2763 2460 2459 2755 2754
8 2462 2279 2561 2764 2459 2280 2558 2755
8 2534 2762 2765 2535 2531 2753 2756 2532
8 2762 2763 2766 2765 2753 2754 2757 2756
8 2763 2764 2767 2766 2754 2755 2758 2757
8 2764 2561 2562 2767 2755 2558 2559 2758
8 2535 2765 2768 2536 2532 2756 2759 2533
8 2765 2766 2769 2768 2756 2757 2760 2759
8 2766 2767 2770 2769 2757 2758 2761 2760
8 2767 2562 2563 2770 2758 2559 2560 2761
8 2536 2768 2588 2320 2533 2759 2585 2319
8 2768 2769 2589 2588 2759 2760 2586 2585
8 2769 2770 2590 2589 2760 2761 2587 2586
8 2770 2563 2333 2590 2761 2560 2334 2587
8 2294 2467 2771 2537 2293 2464 2762 2534
8 2467 2466 2772 2771 2464 2463 2763 2762
8 2466 2465 2773 2772 2463 2462 2764 2763
8 2465 2278 2564 2773 2462 2279 2561 2764
8 2537 2771 2774 2538 2534 2762 2765 2535
8 2771 2772 2775 2774 2762 2763 2766 2765
8 2772 2773 2776 2775 2763 2764 2767 2766
8 2773 2564 2565 2776 2764 2561 2562 2767
8 2538 2774 2777 2539 2535 2765 2768 2536
8 2774 2775 2778 2777 2765 2766 2769 2768
8 2775 2776 2779 2778 2766 2767 2770 2769
8 2776 2565 2566 2779 2767 2562 2563 2770
8 2539 2777 2591 2321 2536 2768 2588 2320
8 2777 2778 2592 2591 2768 2769 2589 2588
8 2778 2779 2593 2592 2769 2770 2590 2589
8 2779 2566 2332 2593 2770 2563 2333 2590
8 2295 2470 2780 2540 2294 2467 2771 2537
8 2470 2469 2781 2780 2467 2466 2772 2771
8 2469 2468 2782 2781 2466 2465 2773 2772
8 2468 2277 2567 2782 2465 2278 2564 2773
8 2540 2780 2783 2541 2537 2771 2774 2538
8 2780 2781 2784 2783 2771 2772 2775 2774
8 2781 2782 2785 2784 2772 2773 2776 2775
8 2782 2567 2568 2785 2773 2564 2565 2776
8 2541 2783 2786 2542 2538 2774 2777 2539
8 2783 2784 2787 2786 2774 2775 2778 2777
8 2784 2785 2788 2787 2775 2776 2779 2778
8 2785 2568 2569 2788 2776 2565 2566 2779
8 2542 2786 2594 2322 2539 2777 2591 2321
8 2786 2787 2595 2594 2777 2778 2592 2591
8 2787 2788 2596 2595 2778 2779 2593 2592
8 2788 2569 2331 2596 2779 2566 2332 2593
8 2296 2473 2789 2543 2295 2470 2780 2540
8 2473 2472 2790 2789 2470 2469 2781 2780
8 2472 2471 2791 2790 2469 2468 2782 2781
8 2471 2276 2570 2791 2468 2277 2567 2782
8 2543 2789 2792 2544 2540 2780 2783 2541
8 2789 2790 2793 2792 2780 2781 2784 2783
8 2790 2791 2794 2793 2781 2782 2785 2784
8 2791 2570 2571 2794 2782 2567 2568 2785
8 2544 2792 2795 2545 2541 2783 2786 2542
8 2792 2793 2796 2795 2783 2784 2787 2786
8 2793 2794 2797 2796 2784 2785 2788 2787
8 2794 2571 2572 2797 2785 2568 2569 2788
8 2545 2795 2597 2323 2542 2786 2594 2322
8 2795 2796 2598 2597 2786 2787 2595 2594
8 2796 2797 2599 2598 2787 2788 2596 2595
8 2797 2572 2330 2599 2788 2569 2331 2596
8 2297 2476 2798 2546 2296 2473 2789 2543
8 2476 2475 2799 2798 2473 2472 2790 2789
8 2475 2474 2800 2799 2472 2471 2791 2790
8 2474 2275 2573 2800 2471 2276 2570 2791
8 2546 2798 2801 2547 2543 2789 2792 2544
8 2798 2799 2802 2801 2789 2790 2793 2792
8 2799 2800 2803 2802 2790 2791 2794 2793
8 2800 2573 2574 2803 2791 2570 2571 2794
8 2547 2801 2804 2548 2544 2792 2795 2545
8 2801 2802 2805 2804 2792 2793 2796 2795
8 2802 2803 2806 2805 2793 2794 2797 2796
8 2803 2574 2575 2806 2794 2571 2572 2797
8 2548 2804 2600 2324 2545 2795 2597 2323
8 2804 2805 2601 2600 2795 2796 2598 2597
8 2805 2806 2602 2601 2796 2797 2599 2598
8 2806 2575 2329 2602 2797 2572 2330 2599
8 2298 2479 2807 2549 2297 2476 2798 2546
8 2479 2478 2808 2807 2476 2475 2799 2798
8 2478 2477 2809 2808 2475 2474 2800 2799
8 2477 2274 2576 2809 2474 2275 2573 2800
8 2549 2807 2810 2550 2546 2798 2801 2547
8 2807 2808 2811 2810 2798 2799 2802 2801
8 2808 2809 2812 2811 2799 2800 2803 2802
8 2809 2576 2577 2812 2800 2573 2574 2803
8 2550 2810 2813 2551 2547 2801 2804 2548
8 2810 2811 2814 2813 2801 2802 2805 2804
8 2811 2812 2815 2814 2802 2803 2806 2805
8 2812 2577 2578 2815 2803 2574 2575 2806
8 2551 2813 2603 2325 2548 2804 2600 2324
8 2813 2814 2604 2603 2804 2805 2601 2600
8 2814 2815 2605 2604 2805 2806 2602 2601
8 2815 2578 2328 2605 2806 2575 2329 2602
8 2299 2482 2816 2552 2298 2479 2807 2549
8 2482 2481 2817 2816 2479 2478 2808 2807
8 2481 2480 2818 2817 2478 2477 2809 2808
8 2480 2273 2579 2818 2477 2274 2576 2809
8 2552 2816 2819 2553 2549 2807 2810 2550
8 2816 2817 2820 2819 2807 2808 2811 2810
8 2817 2818 2821 2820 2808 2809 2812 2811
8 2818 2579 2580 2821 2809 2576 2577 2812
8 2553 2819 2822 2554 2550 2810 2813 2551
8 2819 2820 2823 2822 2810 2811 2814 2813
8 2820 2821 2824 2823 2811 2812 2815 2814
8 2821 2580 2581 2824 2812 2577 2578 2815
8 2554 2822 2606 2326 2551 2813 2603 2325
8 2822 2823 2607 2606 2813 2814 2604 2603
8 2823 2824 2608 2607 2814 2815 2605 2604
8 2824 2581 2327 2608 2815 2578 2328 2605
8 2229 2251 2519 2315 2299 2482 2816 2552
8 2251 2252 2520 2519 2482 2481 2817 2816
8 2252 2253 2521 2520 2481 2480 2818 2817
8 2253 2230 2311 2521 2480 2273 2579 2818
8 2315 2519 2522 2316 2552 2816 2819 2553
8 2519 2520 2523 2522 2816 2817 2820 2819
8 2520 2521 2524 2523 2817 2818 2821 2820
8 2521 2311 2310 2524 2818 2579 2580 2821
8 2316 2522 2525 2317 2553 2819 2822 2554
8 2522 2523 2526 2525 2819 2820 2823 2822
8 2523 2524 2527 2526 2820 2821 2824 2823
8 2524 2310 2309 2527 2821 2580 2581 2824
8 2317 2525 2312 2234 2554 2822 2606 2326
8 2525 2526 2313 2312 2822 2823 2607 2606
8 2526 2527 2314 2313 2823 2824 2608 2607
8 2527 2309 2233 2314 2824 2581 2327 2608
8 2881 3056 3209 2966 2825 2835 2936 2847
8 3056 3057 3210 3209 2835 2836 2937 2936
8 3057 3058 3211 3210 2836 2837 2938 2937
8 3058 2891 3011 3211 2837 2826 2838 2938
8 2966 3209 3212 2967 2847 2936 2939 2846
8 3209 3210 3213 3212 2936 2937 2940 2939
8 3210 3211 3214 3213 2937 2938 2941 2940
8 3211 3011 3012 3214 2938 2838 2839 2941
8 2967 3212 3215 2968 2846 2939 2942 2845
8 3212 3213 3216 3215 2939 2940 2943 2942
8 3213 3214 3217 3216 2940 2941 2944 2943
8 3214 3012 3013 3217 2941 2839 2840 2944
8 2968 3215 3218 2969 2845 2942 2945 2844
8 3215 3216 3219 3218 2942 2943 2946 2945
8 3216 3217 3220 3219 2943 2944 2947 2946
8 3217 3013 3014 3220 2944 2840 2841 2947
8 2969 3218 3221 2970 2844 2945 2948 2843
8 3218 3219 3222 3221 2945 2946 2949 2948
8 3219 3220 3223 3222 2946 2947 2950 2949
8 3220 3014 3015 3223 2947 2841 2842 2950
8 2970 3221 3083 2864 2843 2948 225 21
8 3221 3222 3084 3083 2948 2949 224 225
8 3222 3223 3085 3084 2949 2950 223 224
8 3223 3015 2890 3085 2950 2842 20 223
8 2880 3059 3224 2971 2881 3056 3209 2966
8 3059 3060 3225 3224 3056 3057 3210 3209
8 3060 3061 3226 3225 3057 3058 3211 3210
8 3061 2892 3016 3226 3058 2891 3011 3211
8 2971 3224 3227 2972 2966 3209 3212 2967
8 3224 3225 3228 3227 3209 3210 3213 3212
8 3225 3226 3229 3228 3210 3211 3214 3213
8 3226 3016 3017 3229 3211 3011 3012 3214
8 2972 3227 3230 2973 2967 3212 3215 2968
8 3227 3228 3231 3230 3212 3213 3216 3215
8 3228 3229 3232 3231 3213 3214 3217 3216
8 3229 3017 3018 3232 3214 3012 3013 3217
8 2973 3230 3233 2974 2968 3215 3218 2969
8 3230 3231 3234 3233 3215 3216 3219 3218
8 3231 3232 3235 3234 3216 3217 3220 3219
8 3232 3018 3019 3235 3217 3013 3014 3220
8 2974 3233 3236 2975 2969 3218 3221 2970
8 3233 3234 3237 3236 3218 3219 3222 3221
8 3234 3235 3238 3237 3219 3220 3223 3222
8 3235 3019 3020 3238 3220 3014 3015 3223
8 2975 3236 3086 2865 2970 3221 3083 2864
8 3236 3237 3087 3086 3221 3222 3084 3083
8 3237 3238 3088 3087 3222 3223 3085 3084
8 3238 3020 2889 3088 3223 3015 2890 3085
8 2879 3062 3239 2976 2880 3059 3224 2971
8 3062 3063 3240 3239 3059 3060 3225 3224
8 3063 3064 3241 3240 3060 3061 3226 3225
8 3064 2893 3021 3241 3061 2892 3016 3226
8 2976 3239 3242 2977 2971 3224 3227 2972
8 3239 3240 3243 3242 3224 3225 3228 3227
8 3240 3241 3244 3243 3225 3226 3229 3228
8 3241 3021 3022 3244 3226 3016 3017 3229
8 2977 3242 3245 2978 2972 3227 3230 2973
8 3242 3243 3246 3245 3227 3228 3231 3230
8 3243 3244 3247 3246 3228 3229 3232 3231
8 3244 3022 3023 3247 3229 3017 3018 3232
8 2978 3245 3248 2979 2973 3230 3233 2974
8 3245 3246 3249 3248 3230 3231 3234 3233
8 3246 3247 3250 3249 3231 3232 3235 3234
8 3247 3023 3024 3250 3232 3018 3019 3235
8 2979 3248 3251 2980 2974 3233 3236 2975
8 3248 3249 3252 3251 3233 3234 3237 3236
8 3249 3250 3253 3252 3234 3235 3238 3237
8 3250 3024 3025 3253 3235 3019 3020 3238
8 2980 3251 3089 2866 2975 3236 3086 2865
8 3251 3252 3090 3089 3236 3237 3087 3086
8 3252 3253 3091 3090 3237 3238 3088 3087
8 3253 3025 2888 3091 3238 3020 2889 3088
8 2878 3065 3254 2981 2879 3062 3239 2976
8 3065 3066 3255 3254 3062 3063 3240 3239
8 3066 3067 3256 3255 3063 3064 3241 3240
8 3067 2894 3026 3256 3064 2893 3021 3241
8 2981 3254 3257 2982 2976 3239 3242 2977
8 3254 3255 3258 3257 3239 3240 3243 3242
8 3255 3256 3259 3258 3240 3241 3244 3243
8 3256 3026 3027 3259 3241 3021 3022 3244
8 2982 3257 3260 2983 2977 3242 3245 2978
8 3257 3258 3261 3260 3242 3243 3246 3245
8 3258 3259 3262 3261 3243 3244 3247 3246
8 3259 3027 3028 3262 3244 3022 3023 3247
8 2983 3260 3263 2984 2978 3245 3248 2979
8 3260 3261 3264 3263 3245 3246 3249 3248
8 3261 3262 3265 3264 3246 3247 3250 3249
8 3262 3028 3029 3265 3247 3023 3024 3250
8 2984 3263 3266 2985 2979 3248 3251 2980
8 3263 3264 3267 3266 3248 3249 3252 3251
8 3264 3265 3268 3267 3249 3250 3253 3252
8 3265 3029 3030 3268 3250 3024 3025 3253
8 2985 3266 3092 2867 2980 3251 3089 2866
8 3266 3267 3093 3092 3251 3252 3090 3089
8 3267 3268 3094 3093 3252 3253 3091 3090
8 3268 3030 2887 3094 3253 3025 2888 3091
8 2877 3068 3269 2986 2878 3065 3254 2981
8 3068 3069 3270 3269 3065 3066 3255 3254
8 3069 3070 3271 3270 3066 3067 3256 3255
8 3070 2895 3031 3271 3067 2894 3026 3256
8 2986 3269 3272 2987 2981 3254 3257 2982
8 3269 3270 3273 3272 3254 3255 3258 3257
8 3270 3271 3274 3273 3255 3256 3259 3258
8 3271 3031 3032 3274 3256 3026 3027 3259
8 2987 3272 3275 2988 2982 3257 3260 2983
8 3272 3273 3276 3275 3257 3258 3261 3260
8 3273 3274 3277 3276 3258 3259 3262 3261
8 3274 3032 3033 3277 3259 3027 3028 3262
8 2988 3275 3278 2989 2983 3260 3263 2984
8 3275 3276 3279 3278 3260 3261 3264 3263
8 3276 3277 3280 3279 3261 3262 3265 3264
8 3277 3033 3034 3280 3262 3028 3029 3265
8 2989 3278 3281 2990 2984 3263 3266 2985
8 3278 3279 3282 3281 3263 3264 3267 3266
8 3279 3280 3283 3282 3264 3265 3268 3267
8 3280 3034 3035 3283 3265 3029 3030 3268
8 2990 3281 3095 2868 2985 3266 3092 2867
8 3281 3282 3096 3095 3266 3267 3093 3092
8 3282 3283 3097 3096 3267 3268 3094 3093
8 3283 3035 2886 3097 3268 3030 2887 3094
8 2876 3071 3284 2991 2877 3068 3269 2986
8 3071 3072 3285 3284 3068 3069 3270 3269
8 3072 3073 3286 3285 3069 3070 3271 3270
8 3073 2896 3036 3286 3070 2895 3031 3271
8 2991 3284 3287 2992 2986 3269 3272 2987
8 3284 3285 3288 3287 3269 3270 3273 3272
8 3285 3286 3289 3288 3270 3271 3274 3273
8 3286 3036 3037 3289 3271 3031 3032 3274
8 2992 3287 3290 2993 2987 3272 3275 2988
8 3287 3288 3291 3290 3272 3273 3276 3275
8 3288 3289 3292 3291 3273 3274 3277 3276
8 3289 3037 3038 3292 3274 3032 3033 3277
8 2993 3290 3293 2994 2988 3275 3278 2989
8 3290 3291 3294 3293 3275 3276 3279 3278
8 3291 3292 3295 3294 3276 3277 3280 3279
8 3292 3038 3039 3295 3277 3033 3034 3280
8 2994 3293 3296 2995 2989 3278 3281 2990
8 3293 3294 3297 3296 3278 3279 3282 3281
8 3294 3295 3298 3297 3279 3280 3283 3282
8 3295 3039 3040 3298 3280 3034 3035 3283
8 2995 3296 3098 2869 2990 3281 3095 2868
8 3296 3297 3099 3098 3281 3282 3096 3095
8 3297 3298 3100 3099 3282 3283 3097 3096
8 3298 3040 2885 3100 3283 3035 2886 3097
8 2875 3074 3299 2996 2876 3071 3284 2991
8 3074 3075 3300 3299 3071 3072 3285 3284
8 3075 3076 3301 3300 3072 3073 3286 3285
8 3076 2897 3041 3301 3073 2896 3036 3286
8 2996 3299 3302 2997 2991 3284 3287 2992
8 3299 3300 3303 3302 3284 3285 3288 3287
8 3300 3301 3304 3303 3285 3286 3289 3288
8 3301 3041 3042 3304 3286 3036 3037 3289
8 2997 3302 3305 2998 2992 3287 3290 2993
8 3302 3303 3306 3305 3287 3288 3291 3290
8 3303 3304 3307 3306 3288 3289 3292 3291
8 3304 3042 3043 3307 3289 3037 3038 3292
8 2998 3305 3308 2999 2993 3290 3293 2994
8 3305 3306 3309 3308 3290 3291 3294 3293
8 3306 3307 3310 3309 3291 3292 3295 3294
8 3307 3043 3044 3310 3292 3038 3039 3295
8 2999 3308 3311 3000 2994 3293 3296 2995
8 3308 3309 3312 3311 3293 3294 3297 3296
8 3309 3310 3313 3312 3294 3295 3298 3297
8 3310 3044 3045 3313 3295 3039 3040 3298
8 3000 3311 3101 2870 2995 3296 3098 2869
8 3311 3312 3102 3101 3296 3297 3099 3098
8 3312 3313 3103 3102 3297 3298 3100 3099
8 3313 3045 2884 3103 3298 3040 2885 3100
8 2874 3077 3314 3001 2875 3074 3299 2996
8 3077 3078 3315 3314 3074 3075 3300 3299
8 3078 3079 3316 3315 3075 3076 3301 3300
8 3079 2898 3046 3316 3076 2897 3041 3301
8 3001 3314 3317 3002 2996 3299 3302 2997
8 3314 3315 3318 3317 3299 3300 3303 3302
8 3315 3316 3319 3318 3300 3301 3304 3303
8 3316 3046 3047 3319 3301 3041 3042 3304
8 3002 3317 3320 3003 2997 3302 3305 2998
8 3317 3318 3321 3320 3302 3303 3306 3305
8 3318 3319 3322 3321 3303 3304 3307 3306
8 3319 3047 3048 3322 3304 3042 3043 3307
8 3003 3320 3323 3004 2998 3305 3308 2999
8 3320 3321 3324 3323 3305 3306 3309 3308
8 3321 3322 3325 3324 3306 3307 3310 3309
8 3322 3048 3049 3325 3307 3043 3044 3310
8 3004 3323 3326 3005 2999 3308 3311 3000
8 3323 3324 3327 3326 3308 3309 3312 3311
8 3324 3325 3328 3327 3309 3310 3313 3312
8 3325 3049 3050 3328 3310 3044 3045 3313
8 3005 3326 3104 2871 3000 3311 3101 2870
8 3326 3327 3105 3104 3311 3312 3102 3101
8 3327 3328 3106 3105 3312 3313 3103 3102
8 3328 3050 2883 3106 3313 3045 2884 3103
8 2873 3080 3329 3006 2874 3077 3314 3001
8 3080 3081 3330 3329 3077 3078 3315 3314
8 3081 3082 3331 3330 3078 3079 3316 3315
8 3082 2899 3051 3331 3079 2898 3046 3316
8 3006 3329 3332 3007 3001 3314 3317 3002
8 3329 3330 3333 3332 3314 3315 3318 3317
8 3330 3331 3334 3333 3315 3316 3319 3318
8 3331 3051 3052 3334 3316 3046 3047 3319
8 3007 3332 3335 3008 3002 3317 3320 3003
8 3332 3333 3336 3335 3317 3318 3321 3320
8 3333 3334 3337 3336 3318 3319 3322 3321
8 3334 3052 3053 3337 3319 3047 3048 3322
8 3008 3335 3338 3009 3003 3320 3323 3004
8 3335 3336 3339 3338 3320 3321 3324 3323
8 3336 3337 3340 3339 3321 3322 3325 3324
8 3337 3053 3054 3340 3322 3048 3049 3325
8 3009 3338 3341 3010 3004 3323 3326 3005
8 3338 3339 3342 3341 3323 3324 3327 3326
8 3339 3340 3343 3342 3324 3325 3328 3327
8 3340 3054 3055 3343 3325 3049 3050 3328
8 3010 3341 3107 2872 3005 3326 3104 2871
8 3341 3342 3108 3107 3326 3327 3105 3104
8 3342 3343 3109 3108 3327 3328 3106 3105
8 3343 3055 2882 3109 3328 3050 2883 3106
8 2830 2850 2951 2859 2873 3080 3329 3006
8 2850 2849 2952 2951 3080 3081 3330 3329
8 2849 2848 2953 2952 3081 3082 3331 3330
8 2848 2827 2855 2953 3082 2899 3051 3331
8 2859 2951 2954 2860 3006 3329 3332 3007
8 2951 2952 2955 2954 3329 3330 3333 3332
8 2952 2953 2956 2955 3330 3331 3334 3333
8 2953 2855 2854 2956 3331 3051 3052 3334
8 2860 2954 2957 2861 3007 3332 3335 3008
8 2954 2955 2958 2957 3332 3333 3336 3335
8 2955 2956 2959 2958 3333 3334 3337 3336
8 2956 2854 2853 2959 3334 3052 3053 3337
8 2861 2957 2960 2862 3008 3335 3338 3009
8 2957 2958 2961 2960 3335 3336 3339 3338
8 2958 2959 2962 2961 3336 3337 3340 3339
8 2959 2853 2852 2962 3337 3053 3054 3340
8 2862 2960 2963 2863 3009 3338 3341 3010
8 2960 2961 2964 2963 3338 3339 3342 3341
8 2961 2962 2965 2964 3339 3340 3343 3342
8 2962 2852 2851 2965 3340 3054 3055 3343
8 2863 2963 2856 2829 3010 3341 3107 2872
8 2963 2964 2857 2856 3341 3342 3108 3107
8 2964 2965 2858 2857 3342 3343 3109 3108
8 2965 2851 2828 2858 3343 3055 2882 3109
8 2891 3058 3344 3128 2826 2837 3110 2908
8 3058 3057 3345 3344 2837 2836 3111 3110
8 3057 3056 3346 3345 2836 2835 3112 3111
8 3056 2881 3155 3346 2835 2825 2900 3112
8 3128 3344 3347 3129 2908 3110 3113 2907
8 3344 3345 3348 3347 3110 3111 3114 3113
8 3345 3346 3349 3348 3111 3112 3115 3114
8 3346 3155 3156 3349 3112 2900 2901 3115
8 3129 3347 3350 3130 2907 3113 3116 2906
8 3347 3348 3351 3350 3113 3114 3117 3116
8 3348 3349 3352 3351 3114 3115 3118 3117
8 3349 3156 3157 3352 3115 2901 2902 3118
8 3130 3350 3182 2918 2906 3116 2905 2832
8 3350 3351 3183 3182 3116 3117 2904 2905
8 3351 3352 3184 3183 3117 3118 2903 2904
8 3352 3157 2935 3184 3118 2902 2831 2903
8 2892 3061 3353 3131 2891 3058 3344 3128
8 3061 3060 3354 3353 3058 3057 3345 3344
8 3060 3059 3355 3354 3057 3056 3346 3345
8 3059 2880 3158 3355 3056 2881 3155 3346
8 3131 3353 3356 3132 3128 3344 3347 3129
8 3353 3354 3357 3356 3344 3345 3348 3347
8 3354 3355 3358 3357 3345 3346 3349 3348
8 3355 3158 3159 3358 3346 3155 3156 3349
8 3132 3356 3359 3133 3129 3347 3350 3130
8 3356 3357 3360 3359 3347 3348 3351 3350
8 3357 3358 3361 3360 3348 3349 3352 3351
8 3358 3159 3160 3361 3349 3156 3157 3352
8 3133 3359 3185 2919 3130 3350 3182 2918
8 3359 3360 3186 3185 3350 3351 3183 3182
8 3360 3361 3187 3186 3351 3352 3184 3183
8 3361 3160 2934 3187 3352 3157 2935 3184
8 2893 3064 3362 3134 2892 3061 3353 3131
8 3064 3063 3363 3362 3061 3060 3354 3353
8 3063 3062 3364 3363 3060 3059 3355 3354
8 3062 2879 3161 3364 3059 2880 3158 3355
8 3134 3362 3365 3135 3131 3353 3356 3132
8 3362 3363 3366 3365 3353 3354 3357 3356
8 3363 3364 3367 3366 3354 3355 3358 3357
8 3364 3161 3162 3367 3355 3158 3159 3358
8 3135 3365 3368 3136 3132 3356 3359 3133
8 3365 3366 3369 3368 3356 3357 3360 3359
8 3366 3367 3370 3369 3357 3358 3361 3360
8 3367 3162 3163 3370 3358 3159 3160 3361
8 3136 3368 3188 2920 3133 3359 3185 2919
8 3368 3369 3189 3188 3359 3360 3186 3185
8 3369 3370 3190 3189 3360 3361 3187 3186
8 3370 3163 2933 3190 3361 3160 2934 3187
8 2894 3067 3371 3137 2893 3064 3362 3134
8 3067 3066 3372 3371 3064 3063 3363 3362
8 3066 3065 3373 3372 3063 3062 3364 3363
8 3065 2878 3164 3373 3062 2879 3161 3364
8 3137 3371 3374 3138 3134 3362 3365 3135
8 3371 3372 3375 3374 3362 3363 3366 3365
8 3372 3373 3376 3375 3363 3364 3367 3366
8 3373 3164 3165 3376 3364 3161 3162 3367
8 3138 3374 3377 3139 3135 3365 3368 3136
8 3374 3375 3378 3377 3365 3366 3369 3368
8 3375 3376 3379 3378 3366 3367 3370 3369
8 3376 3165 3166 3379 3367 3162 3163 3370
8 3139 3377 3191 2921 3136 3368 3188 2920
8 3377 3378 3192 3191 3368 3369 3189 3188
8 3378 3379 3193 3192 3369 3370 3190 3189
8 3379 3166 2932 3193 3370 3163 2933 3190
8 2895 3070 3380 3140 2894 3067 3371 3137
8 3070 3069 3381 3380 3067 3066 3372 3371
8 3069 3068 3382 3381 3066 3065 3373 3372
8 3068 2877 3167 3382 3065 2878 3164 3373
8 3140 3380 3383 3141 3137 3371 3374 3138
8 3380 3381 3384 3383 3371 3372 3375 3374
8 3381 3382 3385 3384 3372 3373 3376 3375
8 3382 3167 3168 3385 3373 3164 3165 3376
8 3141 3383 3386 3142 3138 3374 3377 3139
8 3383 3384 3387 3386 3374 3375 3378 3377
8 3384 3385 3388 3387 3375 3376 3379 3378
8 3385 3168 3169 3388 3376 3165 3166 3379
8 3142 3386 3194 2922 3139 3377 3191 2921
8 3386 3387 3195 3194 3377 3378 3192 3191
8 3387 3388 3196 3195 3378 3379 3193 3192
8 3388 3169 2931 3196 3379 3166 2932 3193
8 2896 3073 3389 3143 2895 3070 3380 3140
8 3073 3072 3390 3389 3070 3069 3381 3380
8 3072 3071 3391 3390 3069 3068 3382 3381
8 3071 2876 3170 3391 3068 2877 3167 3382
8 3143 3389 3392 3144 3140 3380 3383 3141
8 3389 3390 3393 3392 3380 3381 3384 3383
8 3390 3391 3394 3393 3381 3382 3385 3384
8 3391 3170 3171 3394 3382 3167 3168 3385
8 3144 3392 3395 3145 3141 3383 3386 3142
8 3392 3393 3396 3395 3383 3384 3387 3386
8 3393 3394 3397 3396 3384 3385 3388 3387
8 3394 3171 3172 3397 3385 3168 3169 3388
8 3145 3395 3197 2923 3142 3386 3194 2922
8 3395 3396 3198 3197 3386 3387 3195 3194
8 3396 3397 3199 3198 3387 3388 3196 3195
8 3397 3172 2930 3199 3388 3169 2931 3196
8 2897 3076 3398 3146 2896 3073 3389 3143
8 3076 3075 3399 3398 3073 3072 3390 3389
8 3075 3074 3400 3399 3072 3071 3391 3390
8 3074 2875 3173 3400 3071 2876 3170 3391
8 3146 3398 3401 3147 3143 3389 3392 3144
8 3398 3399 3402 3401 3389 3390 3393 3392
8 3399 3400 3403 3402 3390 3391 3394 3393
8 3400 3173 3174 3403 3391 3170 3171 3394
8 3147 3401 3404 3148 3144 3392 3395 3145
8 3401 3402 3405 3404 3392 3393 3396 3395
8 3402 3403 3406 3405 3393 3394 3397 3396
8 3403 3174 3175 3406 3394 3171 3172 3397
8 3148 3404 3200 2924 3145 3395 3197 2923
8 3404 3405 3201 3200 3395 3396 3198 3197
8 3405 3406 3202 3201 3396 3397 3199 3198
8 3406 3175 2929 3202 3397 3172 2930 3199
8 2898 3079 3407 3149 2897 3076 3398 3146
8 3079 3078 3408 3407 3076 3075 3399 3398
8 3078 3077 3409 3408 3075 3074 3400 3399
8 3077 2874 3176 3409 3074 2875 3173 3400
8 3149 3407 3410 3150 3146 3398 3401 3147
8 3407 3408 3411 3410 3398 3399 3402 3401
8 3408 3409 3412 3411 3399 3400 3403 3402
8 3409 3176 3177 3412 3400 3173 3174 3403
8 3150 3410 3413 3151 3147 3401 3404 3148
8 3410 3411 3414 3413 3401 3402 3405 3404
8 3411 3412 3415 3414 3402 3403 3406 3405
8 3412 3177 3178 3415 3403 3174 3175 3406
8 3151 3413 3203 2925 3148 3404 3200 2924
8 3413 3414 3204 3203 3404 3405 3201 3200
8 3414 3415 3205 3204 3405 3406 3202 3201
8 3415 3178 2928 3205 3406 3175 2929 3202
8 2899 3082 3416 3152 2898 3079 3407 3149
8 3082 3081 3417 3416 3079 3078 3408 3407
8 3081 3080 3418 3417 3078 3077 3409 3408
8 3080 2873 3179 3418 3077 2874 3176 3409
8 3152 3416 3419 3153 3149 3407 3410 3150
8 3416 3417 3420 3419 3407 3408 3411 3410
8 3417 3418 3421 3420 3408 3409 3412 3411
8 3418 3179 3180 3421 3409 3176 3177 3412
8 3153 3419 3422 3154 3150 3410 3413 3151
8 3419 3420 3423 3422 3410 3411 3414 3413
8 3420 3421 3424 3423 3411 3412 3415 3414
8 3421 3180 3181 3424 3412 3177 3178 3415
8 3154 3422 3206 2926 3151 3413 3203 2925
8 3422 3423 3207 3206 3413 3414 3204 3203
8 3423 3424 3208 3207 3414 3415 3205 3204
8 3424 3181 2927 3208 3415 3178 2928 3205
8 2827 2848 3119 2915 2899 3082 3416 3152
8 2848 2849 3120 3119 3082 3081 3417 3416
8 2849 2850 3121 3120 3081 3080 3418 3417
8 2850 2830 2911 3121 3080 2873 3179 3418
8 2915 3119 3122 2916 3152 3416 3419 3153
8 3119 3120 3123 3122 3416 3417 3420 3419
8 3120 3121 3124 3123 3417 3418 3421 3420
8 3121 2911 2910 3124 3418 3179 3180 3421
8 2916 3122 3125 2917 3153 3419 3422 3154
8 3122 3123 3126 3125 3419 3420 3423 3422
8 3123 3124 3127 3126 3420 3421 3424 3423
8 3124 2910 2909 3127 3421 3180 3181 3424
8 2917 3125 2912 2834 3154 3422 3206 2926
8 3125 3126 2913 2912 3422 3423 3207 3206
8 3126 3127 2914 2913 3423 3424 3208 3207
8 3127 2909 2833 2914 3424 3181 2927 3208
2 3425 3433
2 3433 3434
2 3434 3435
2 3435 3436
2 3436 3437
2 3437 3438
2 3438 3439
2 3439 3440
2 3440 3441
2 3441 3442
2 3442 3443
2 3443 3444
2 3444 2229
2 17 3445
2 3445 3446
2 3446 3447
2 3447 3448
2 3448 3449
2 3449 3450
2 3450 3451
2 3451 3452
2 3452 3453
2 3453 3454
2 3454 3455
2 3455 3456
2 3456 3457
2 3457 3458
2 3458 2229
2 3426 3459
2 3459 3460
2 3460 3461
2 3461 3462
2 3462 3463
2 3463 3464
2 3464 3465
2 3465 3466
2 3466 3467
2 3467 3468
2 3468 3469
2 3469 3470
2 3470 3471
2 3471 3472
2 3472 17
2 3426 3473
2 3473 3474
2 3474 3475
2 3475 3476
2 3476 3477
2 3477 3478
2 3478 3479
2 3479 15
2 17 3480
2 3480 3481
2 3481 3482
2 3482 3483
2 3483 3484
2 3484 3485
2 3485 3486
2 3486 3425
2 13 3487
2 3487 3488
2 3488 3489
2 3489 3490
2 3490 3491
2 3491 3492
2 3492 3493
2 3493 3494
2 3494 3495
2 3495 3496
2 3496 3497
2 3497 3498
2 3498 3499
2 3499 3500
2 3500 3426
2 3427 3501
2 3501 3502
2 3502 3503
2 3503 3504
2 3504 3505
2 3505 3506
2 3506 3507
2 3507 3508
2 3508 3509
2 3509 3510
2 3510 3511
2 3511 3512
2 3512 3513
2 3513 3514
2 3514 13
2 3427 3515
2 3515 3516
2 3516 3517
2 3517 3518
2 3518 3519
2 3519 3520
2 3520 3521
2 3521 11
2 3426 3522
2 3522 3523
2 3523 3524
2 3524 3525
2 3525 3526
2 3526 3527
2 3527 3528
2 3528 3529
2 3529 3530
2 3530 3531
2 3531 3532
2 3532 3533
2 3533 3425
2 3428 3534
2 3534 3535
2 3535 3536
2 3536 3537
2 3537 3538
2 3538 3539
2 3539 3540
2 3540 3541
2 3541 3542
2 3542 3543
2 3543 3544
2 3544 3545
2 3545 3426
2 13 3546
2 3546 3547
2 3547 3548
2 3548 3549
2 3549 3550
2 3550 3551
2 3551 3552
2 3552 3428
2 9 3553
2 3553 3554
2 3554 3555
2 3555 3556
2 3556 3557
2 3557 3558
2 3558 3559
2 3559 3560
2 3560 3561
2 3561 3562
2 3562 3563
2 3563 3564
2 3564 3565
2 3565 3566
2 3566 3427
2 9 3567
2 3567 3568
2 3568 3569
2 3569 3570
2 3570 3571
2 3571 3572
2 3572 3573
2 3573 3574
2 3574 3575
2 3575 3576
2 3576 3577
2 3577 3578
2 3578 3579
2 3579 3580
2 3580 3429
2 602 3581
2 3581 3582
2 3582 3583
2 3583 3584
2 3584 3585
2 3585 3586
2 3586 3587
2 3587 3588
2 3588 3589
2 3589 3590
2 3590 3591
2 3591 3592
2 3592 3429
2 602 3593
2 3593 3594
2 3594 3595
2 3595 599
2 599 3596
2 3596 3597
2 3597 3598
2 3598 9
2 3427 3599
2 3599 3600
2 3600 3601
2 3601 3602
2 3602 3603
2 3603 3604
2 3604 3605
2 3605 3606
2 3606 3607
2 3607 3608
2 3608 3609
2 3609 3610
2 3610 3428
2 602 3611
2 3611 3612
2 3612 3613
2 3613 3614
2 3614 3615
2 3615 3616
2 3616 3617
2 3617 3618
2 3618 3619
2 3619 3620
2 3620 3621
2 3621 3622
2 3622 3427
2 3429 3623
2 3623 3624
2 3624 3625
2 3625 3626
2 3626 3627
2 3627 3628
2 3628 3629
2 3629 3630
2 3630 3631
2 3631 3632
2 3632 3633
2 3633 3634
2 3634 3430
2 3429 3635
2 3635 3636
2 3636 3637
2 3637 3638
2 3638 3639
2 3639 3640
2 3640 3641
2 3641 3642
2 3642 3643
2 3643 3644
2 3644 3645
2 3645 3646
2 3646 3647
2 3647 3648
2 3648 5
2 5 3649
2 3649 3650
2 3650 3651
2 3651 3652
2 3652 3653
2 3653 3654
2 3654 3655
2 3655 3430
2 3430 3656
2 3656 3657
2 3657 3658
2 3658 3659
2 3659 3660
2 3660 3661
2 3661 3662
2 3662 3663
2 3663 3664
2 3664 3665
2 3665 3666
2 3666 3667
2 3667 3431
2 3429 3668
2 3668 3669
2 3669 3670
2 3670 3671
2 3671 3672
2 3672 3673
2 3673 3674
2 3674 7
2 5 3675
2 3675 3676
2 3676 3677
2 3677 3678
2 3678 3679
2 3679 3680
2 3680 3681
2 3681 3682
2 3682 3683
2 3683 3684
2 3684 3685
2 3685 3686
2 3686 3687
2 3687 3688
2 3688 3431
2 3431 3689
2 3689 3690
2 3690 3691
2 3691 3692
2 3692 3693
2 3693 3694
2 3694 3695
2 3695 3696
2 3696 3697
2 3697 3698
2 3698 3699
2 3699 3700
2 3700 3432
2 3431 3701
2 3701 3702
2 3702 3703
2 3703 3704
2 3704 3705
2 3705 3706
2 3706 3707
2 3707 3708
2 3708 3709
2 3709 3710
2 3710 3711
2 3711 3712
2 3712 3713
2 3713 3714
2 3714 0
2 0 3715
2 3715 3716
2 3716 3717
2 3717 3718
2 3718 3719
2 3719 3720
2 3720 3721
2 3721 3432
2 3432 3722
2 3722 3723
2 3723 3724
2 3724 3725
2 3725 3726
2 3726 3727
2 3727 3728
2 3728 3729
2 3729 3730
2 3730 3731
2 3731 3732
2 3732 3733
2 3733 2826
2 3431 3734
2 3734 3735
2 3735 3736
2 3736 3737
2 3737 3738
2 3738 3739
2 3739 3740
2 3740 3
2 0 3741
2 3741 3742
2 3742 3743
2 3743 3744
2 3744 3745
2 3745 3746
2 3746 3747
2 3747 3748
2 3748 3749
2 3749 3750
2 3750 3751
2 3751 3752
2 3752 3753
2 3753 3754
2 3754 2826
2 3755 3763
2 3763 3764
2 3764 3765
2 3765 3766
2 3766 3767
2 3767 3768
2 3768 3769
2 3769 3770
2 3770 3771
2 3771 3772
2 3772 3773
2 3773 3774
2 3774 2230
2 16 3775
2 3775 3776
2 3776 3777
2 3777 3778
2 3778 3779
2 3779 3780
2 3780 3781
2 3781 3782
2 3782 3783
2 3783 3784
2 3784 3785
2 3785 3786
2 3786 3787
2 3787 3788
2 3788 2230
2 3756 3789
2 3789 3790
2 3790 3791
2 3791 3792
2 3792 3793
2 3793 3794
2 3794 3795
2 3795 3796
2 3796 3797
2 3797 3798
2 3798 3799
2 3799 3800
2 3800 3801
2 3801 3802
2 3802 16
2 3756 3803
2 3803 3804
2 3804 3805
2 3805 3806
2 3806 3807
2 3807 3808
2 3808 3809
2 3809 14
2 16 3810
2 3810 3811
2 3811 3812
2 3812 3813
2 3813 3814
2 3814 3815
2 3815 3816
2 3816 3755
2 12 3817
2 3817 3818
2 3818 3819
2 3819 3820
2 3820 3821
2 3821 3822
2 3822 3823
2 3823 3824
2 3824 3825
2 3825 3826
2 3826 3827
2 3827 3828
2 3828 3829
2 3829 3830
2 3830 3756
2 3757 3831
2 3831 3832
2 3832 3833
2 3833 3834
2 3834 3835
2 3835 3836
2 3836 3837
2 3837 3838
2 3838 3839
2 3839 3840
2 3840 3841
2 3841 3842
2 3842 3843
2 3843 3844
2 3844 12
2 3757 3845
2 3845 3846
2 3846 3847
2 3847 3848
2 3848 3849
2 3849 3850
2 3850 3851
2 3851 10
2 3756 3852
2 3852 3853
2 3853 3854
2 3854 3855
2 3855 3856
2 3856 3857
2 3857 3858
2 3858 3859
2 3859 3860
2 3860 3861
2 3861 3862
2 3862 3863
2 3863 3755
2 3758 3864
2 3864 3865
2 3865 3866
2 3866 3867
2 3867 3868
2 3868 3869
2 3869 3870
2 3870 3871
2 3871 3872
2 3872 3873
2 3873 3874
2 3874 3875
2 3875 3756
2 12 3876
2 3876 3877
2 3877 3878
2 3878 3879
2 3879 3880
2 3880 3881
2 3881 3882
2 3882 3758
2 8 3883
2 3883 3884
2 3884 3885
2 3885 3886
2 3886 3887
2 3887 3888
2 3888 3889
2 3889 3890
2 3890 3891
2 3891 3892
2 3892 3893
2 3893 3894
2 3894 3895
2 3895 3896
2 3896 3757
2 8 3897
2 3897 3898
2 3898 3899
2 3899 3900
2 3900 3901
2 3901 3902
2 3902 3903
2 3903 3904
2 3904 3905
2 3905 3906
2 3906 3907
2 3907 3908
2 3908 3909
2 3909 3910
2 3910 3759
2 1509 3911
2 3911 3912
2 3912 3913
2 3913 3914
2 3914 3915
2 3915 3916
2 3916 3917
2 3917 3918
2 3918 3919
2 3919 3920
2 3920 3921
2 3921 3922
2 3922 3759
2 1509 3923
2 3923 3924
2 3924 3925
2 3925 1512
2 1512 3926
2 3926 3927
2 3927 3928
2 3928 8
2 3757 3929
2 3929 3930
2 3930 3931
2 3931 3932
2 3932 3933
2 3933 3934
2 3934 3935
2 3935 3936
2 3936 3937
2 3937 3938
2 3938 3939
2 3939 3940
2 3940 3758
2 1509 3941
2 3941 3942
2 3942 3943
2 3943 3944
2 3944 3945
2 3945 3946
2 3946 3947
2 3947 3948
2 3948 3949
2 3949 3950
2 3950 3951
2 3951 3952
2 3952 3757
2 3759 3953
2 3953 3954
2 3954 3955
2 3955 3956
2 3956 3957
2 3957 3958
2 3958 3959
2 3959 3960
2 3960 3961
2 3961 3962
2 3962 3963
2 3963 3964
2 3964 3760
2 3759 3965
2 3965 3966
2 3966 3967
2 3967 3968
2 3968 3969
2 3969 3970
2 3970 3971
2 3971 3972
2 3972 3973
2 3973 3974
2 3974 3975
2 3975 3976
2 3976 3977
2 3977 3978
2 3978 4
2 4 3979
2 3979 3980
2 3980 3981
2 3981 3982
2 3982 3983
2 3983 3984
2 3984 3985
2 3985 3760
2 3760 3986
2 3986 3987
2 3987 3988
2 3988 3989
2 3989 3990
2 3990 3991
2 3991 3992
2 3992 3993
2 3993 3994
2 3994 3995
2 3995 3996
2 3996 3997
2 3997 3761
2 3759 3998
2 3998 3999
2 3999 4000
2 4000 4001
2 4001 4002
2 4002 4003
2 4003 4004
2 4004 6
2 4 4005
2 4005 4006
2 4006 4007
2 4007 4008
2 4008 4009
2 4009 4010
2 4010 4011
2 4011 4012
2 4012 4013
2 4013 4014
2 4014 4015
2 4015 4016
2 4016 4017
2 4017 4018
2 4018 3761
2 3761 4019
2 4019 4020
2 4020 4021
2 4021 4022
2 4022 4023
2 4023 4024
2 4024 4025
2 4025 4026
2 4026 4027
2 4027 4028
2 4028 4029
2 4029 4030
2 4030 3762
2 3761 4031
2 4031 4032
2 4032 4033
2 4033 4034
2 4034 4035
2 4035 4036
2 4036 4037
2 4037 4038
2 4038 4039
2 4039 4040
2 4040 4041
2 4041 4042
2 4042 4043
2 4043 4044
2 4044 1
2 1 4045
2 4045 4046
2 4046 4047
2 4047 4048
2 4048 4049
2 4049 4050
2 4050 4051
2 4051 3762
2 3762 4052
2 4052 4053
2 4053 4054
2 4054 4055
2 4055 4056
2 4056 4057
2 4057 4058
2 4058 4059
2 4059 4060
2 4060 4061
2 4061 4062
2 4062 4063
2 4063 2825
2 3761 4064
2 4064 4065
2 4065 4066
2 4066 4067
2 4067 4068
2 4068 4069
2 4069 4070
2 4070 2
2 1 4071
2 4071 4072
2 4072 4073
2 4073 4074
2 4074 4075
2 4075 4076
2 4076 4077
2 4077 4078
2 4078 4079
2 4079 4080
2 4080 4081
2 4081 4082
2 4082 4083
2 4083 4084
2 4084 2825
2 11 512
2 13 512
2 15 512
2 17 512
2 19 512
2 10 1369
2 12 1369
2 14 1369
2 16 1369
2 18 1369
2 7 512
2 5 512
2 3 512
2 0 512
2 20 512
2 6 1369
2 4 1369
2 2 1369
2 1 1369
2 21 1369
CELL_TYPES 2884
9
9
9
9
9
9
9
9
9
9
9
9
9
9
9
9
9
9
9
9
9
9
9
9
9
9
9
9
9
9
9
9
9
9
9
9
9
9
9
9
9
9
9
9
9
9
9
9
9
9
9
9
9
9
9
9
9
9
9
9
9
9
9
9
9
9
9
9
9
9
9
9
9
9
9
9
9
9
9
9
9
9
9
9
9
9
9
9
9
9
9
9
9
9
9
9
9
9
9
9
9
9
9
9
9
9
9
9
9
9
9
9
9
9
9
9
9
9
9
9
9
9
9
9
9
9
9
9
9
9
9
9
9
9
9
9
9
9
9
9
9
9
9
9
9
9
9
9
9
9
9
9
9
9
9
9
9
9
9
9
9
9
9
9
9
9
9
9
9
9
9
9
9
9
9
9
9
9
9
9
9
9
9
9
9
9
9
9
9
9
9
9
9
9
9
9
9
9
9
9
9
9
9
9
9
9
9
9
9
9
9
9
9
9
9
9
9
9
9
9
9
9
9
9
9
9
9
9
9
9
9
9
9
9
9
9
9
9
9
9
9
9
9
9
9
9
9
9
9
9
9
9
9
9
9
9
9
9
9
9
9
9
9
9
9
9
9
9
9
9
9
9
9
9
9
9
9
9
9
9
9
9
9
9
9
9
9
9
9
9
9
9
9
9
9
9
9
9
9
9
9
9
9
9
9
9
9
9
9
9
9
9
9
9
9
9
9
9
9
9
9
9
9
9
9
9
9
9
9
9
9
9
9
9
9
9
9
9
9
9
9
9
9
9
9
9
9
9
9
9
9
9
9
9
9
9
9
9
9
9
9
9
9
9
9
9
9
9
9
9
9
9
9
9
9
9
9
9
9
9
9
9
9
9
9
9
9
9
9
9
9
9
9
9
9
9
9
9
9
9
12
12
12
12
12
12
12
12
12
12
12
12
12
12
12
12
12
12
12
12
12
12
12
12
12
12
12
12
12
12
12
12
12
12
12
12
12
12
12
12
12
12
12
12
12
12
12
12
12
12
12
12
12
12
12
12
12
12
12
12
12
12
12
12
12
12
12
12
12
12
12
12
12
12
12
12
12
12
12
12
12
12
12
12
12
12
12
12
12
12
12
12
12
12
12
12
12
12
12
12
12
12
12
12
12
12
12
12
12
12
12
12
12
12
12
12
12
12
12
12
12
12
12
12
12
12
12
12
12
12
12
12
12
12
12
12
12
12
12
12
12
12
12
12
12
12
12
12
12
12
12
12
12
12
12
12
12
12
12
12
12
12
12
12
12
12
12
12
12
12
12
12
12
12
12
12
12
12
12
12
12
12
12
12
12
12
12
12
12
12
12
12
12
12
12
12
12
12
12
12
12
12
12
12
12
12
12
12
12
12
12
12
12
12
12
12
12
12
12
12
12
12
12
12
12
12
12
12
12
12
12
12
12
12
12
12
12
12
12
12
12
12
12
12
12
12
12
12
12
12
12
12
12
12
12
12
12
12
12
12
12
12
12
12
12
12
12
12
12
12
12
12
12
12
12
12
12
12
12
12
12
12
12
12
12
12
12
12
12
12
12
12
12
12
12
12
12
12
12
12
12
12
12
12
12
12
12
12
12
12
12
12
12
12
12
12
12
12
12
12
12
12
12
12
12
12
12
12
12
12
12
12
12
12
12
12
12
12
12
12
12
12
12
12
12
12
12
12
12
12
12
12
12
12
12
12
12
12
12
12
12
12
12
12
12
12
12
12
12
12
12
12
12
12
12
12
12
12
12
12
12
12
12
12
12
12
12
12
12
12
12
12
12
12
12
12
12
12
12
12
12
12
12
12
12
12
12
12
12
12
12
12
12
12
12
12
12
12
12
12
12
12
12
12
12
12
12
12
12
12
12
12
12
12
12
12
12
12
12
12
12
12
12
12
12
12
12
12
12
12
12
12
12
12
12
12
12
12
12
12
12
12
12
12
12
12
12
12
12
12
12
12
12
12
12
12
12
12
12
12
12
12
12
12
12
12
12
12
12
12
12
12
12
12
12
12
12
12
12
12
12
12
12
12
12
12
12
12
12
12
12
12
12
12
12
12
12
12
12
12
12
12
12
12
12
12
12
12
12
12
12
12
12
12
12
12
12
12
12
12
12
12
12
12
12
12
12
12
12
12
12
12
12
12
12
12
12
12
12
12
12
12
12
12
12
12
12
12
12
12
12
12
12
12
12
12
12
12
12
12
12
12
12
12
12
12
12
12
12
12
12
12
12
12
12
12
12
12
12
12
12
12
12
12
12
12
12
12
12
12
12
12
12
12
12
12
12
12
12
12
12
12
12
12
12
12
12
12
12
12
12
12
12
12
12
12
12
12
12
12
12
12
12
12
12
12
12
12
12
12
12
12
12
12
12
12
12
12
12
12
12
12
12
12
12
12
12
12
12
12
12
12
12
12
12
12
12
12
12
12
12
12
12
12
12
12
12
12
12
12
12
12
12
12
12
12
12
12
12
12
12
12
12
12
12
12
12
12
12
12
12
12
12
12
12
12
12
12
12
12
12
12
12
12
12
12
12
12
12
12
12
12
12
12
12
12
12
12
12
12
12
12
12
12
12
12
12
12
12
12
12
12
12
12
12
12
12
12
12
12
12
12
12
12
12
12
12
12
12
12
12
12
12
12
12
12
12
12
12
12
12
12
12
12
12
12
12
12
12
12
12
12
12
12
12
12
12
12
12
12
12
12
12
12
12
12
12
12
12
12
12
12
12
12
12
12
12
12
12
12
12
12
12
12
12
12
12
12
12
12
12
12
12
12
12
12
12
12
12
12
12
12
12
12
12
12
12
12
12
12
12
12
12
12
12
12
12
12
12
12
12
12
12
12
12
12
12
12
12
12
12
12
12
12
12
12
12
12
12
12
12
12
12
12
12
12
12
12
12
12
12
12
12
12
12
12
12
12
12
12
12
12
12
12
12
12
12
12
12
12
12
12
12
12
12
12
12
12
12
12
12
12
12
12
12
12
12
12
12
12
12
12
12
12
12
12
12
12
12
12
12
12
12
12
12
12
12
12
12
12
12
12
12
12
12
12
12
12
12
12
12
12
12
12
12
12
12
12
12
12
12
12
12
12
12
12
12
12
12
12
12
12
12
12
12
12
12
12
12
12
12
12
12
12
12
12
12
12
12
12
12
12
12
12
12
12
12
12
12
12
12
12
12
12
12
12
12
12
12
12
12
12
12
12
12
12
12
12
12
12
12
12
12
12
12
12
12
12
12
12
12
12
12
12
12
12
12
12
12
12
12
12
12
12
12
12
12
12
12
12
12
12
12
12
12
12
12
12
12
12
12
12
12
12
12
12
12
12
12
12
12
12
12
12
12
12
12
12
12
12
12
12
12
12
12
12
12
12
12
12
12
12
12
12
12
12
12
12
12
12
12
12
12
12
12
12
12
12
12
12
12
12
12
12
12
12
12
12
12
12
12
12
12
12
12
12
12
12
12
12
12
12
12
12
12
12
12
12
12
12
12
12
12
12
12
12
12
12
12
12
12
12
12
12
12
12
12
12
12
12
12
12
12
12
12
12
12
12
12
12
12
12
12
12
12
12
12
12
12
12
12
12
12
12
12
12
12
12
12
12
12
12
12
12
12
12
12
12
12
12
12
12
12
12
12
12
12
12
12
12
12
12
12
12
12
12
12
12
12
12
12
12
12
12
12
12
12
12
12
12
12
12
12
12
12
12
12
12
12
12
12
12
12
12
12
12
12
12
12
12
12
12
12
12
12
12
12
12
12
12
12
12
12
12
12
12
12
12
12
12
12
12
12
12
12
12
12
12
12
12
12
12
12
12
12
12
12
12
12
12
12
12
12
12
12
12
12
12
12
12
12
12
12
12
12
12
12
12
12
12
12
12
12
12
12
12
12
12
12
12
12
12
12
12
12
12
12
12
12
12
12
12
12
12
12
12
12
12
12
12
12
12
12
12
12
12
12
12
12
12
12
12
12
12
12
12
12
12
12
12
12
12
12
12
12
12
12
12
12
12
12
12
12
12
12
12
12
12
12
12
12
12
12
12
12
12
12
12
12
12
12
12
12
12
12
12
12
12
12
12
12
12
12
12
12
12
12
12
12
12
12
12
12
12
12
12
12
12
12
12
12
12
12
12
12
12
12
12
12
12
12
12
12
12
12
12
12
12
12
12
12
12
12
12
12
12
12
12
12
12
12
12
12
12
12
12
12
12
12
12
12
12
12
12
12
12
12
12
12
12
12
12
12
12
12
12
12
12
12
12
12
12
12
12
12
12
12
12
12
12
12
12
12
12
12
12
12
12
12
12
12
12
12
12
12
12
12
12
12
12
12
12
12
12
12
12
12
12
12
12
12
12
12
12
12
12
12
12
12
12
12
12
12
12
12
12
12
12
12
12
12
12
12
12
12
12
12
12
12
12
12
12
12
12
12
12
12
12
12
12
12
12
12
12
12
12
12
12
12
12
12
12
12
12
12
12
12
12
12
12
12
12
12
12
12
12
12
12
12
12
12
12
12
12
12
12
12
12
12
12
12
12
12
12
12
12
12
12
12
12
12
12
12
12
12
12
12
12
12
12
12
12
12
12
12
12
12
12
12
12
12
12
12
12
12
12
12
12
12
12
12
12
12
12
12
12
12
12
12
12
12
12
12
12
12
12
12
12
12
12
12
12
12
12
12
12
12
12
12
12
12
12
12
12
12
12
12
12
12
12
12
12
12
12
12
12
12
12
12
12
12
12
12
12
12
12
12
12
12
12
12
12
12
12
12
12
12
12
12
12
12
12
12
12
12
12
12
12
12
12
12
12
12
12
12
12
12
12
12
12
12
12
12
12
12
12
12
12
12
12
12
12
12
12
12
12
12
12
12
12
3
3
3
3
3
3
3
3
3
3
3
3
3
3
3
3
3
3
3
3
3
3
3
3
3
3
3
3
3
3
3
3
3
3
3
3
3
3
3
3
3
3
3
3
3
3
3
3
3
3
3
3
3
3
3
3
3
3
3
3
3
3
3
3
3
3
3
3
3
3
3
3
3
3
3
3
3
3
3
3
3
3
3
3
3
3
3
3
3
3
3
3
3
3
3
3
3
3
3
3
3
3
3
3
3
3
3
3
3
3
3
3
3
3
3
3
3
3
3
3
3
3
3
3
3
3
3
3
3
3
3
3
3
3
3
3
3
3
3
3
3
3
3
3
3
3
3
3
3
3
3
3
3
3
3
3
3
3
3
3
3
3
3
3
3
3
3
3
3
3
3
3
3
3
3
3
3
3
3
3
3
3
3
3
3
3
3
3
3
3
3
3
3
3
3
3
3
3
3
3
3
3
3
3
3
3
3
3
3
3
3
3
3
3
3
3
3
3
3
3
3
3
3
3
3
3
3
3
3
3
3
3
3
3
3
3
3
3
3
3
3
3
3
3
3
3
3
3
3
3
3
3
3
3
3
3
3
3
3
3
3
3
3
3
3
3
3
3
3
3
3
3
3
3
3
3
3
3
3
3
3
3
3
3
3
3
3
3
3
3
3
3
3
3
3
3
3
3
3
3
3
3
3
3
3
3
3
3
3
3
3
3
3
3
3
3
3
3
3
3
3
3
3
3
3
3
3
3
3
3
3
3
3
3
3
3
3
3
3
3
3
3
3
3
3
3
3
3
3
3
3
3
3
3
3
3
3
3
3
3
3
3
3
3
3
3
3
3
3
3
3
3
3
3
3
3
3
3
3
3
3
3
3
3
3
3
3
3
3
3
3
3
3
3
3
3
3
3
3
3
3
3
3
3
3
3
3
3
3
3
3
3
3
3
3
3
3
3
3
3
3
3
3
3
3
3
3
3
3
3
3
3
3
3
3
3
3
3
3
3
3
3
3
3
3
3
3
3
3
3
3
3
3
3
3
3
3
3
3
3
3
3
3
3
3
3
3
3
3
3
3
3
3
3
3
3
3
3
3
3
3
3
3
3
3
3
3
3
3
3
3
3
3
3
3
3
3
3
3
3
3
3
3
3
3
3
3
3
3
3
3
3
3
3
3
3
3
3
3
3
3
3
3
3
3
3
3
3
3
3
3
3
3
3
3
3
3
3
3
3
3
3
3
3
3
3
3
3
3
3
3
3
3
3
3
3
3
3
3
3
3
3
3
3
3
3
3
3
3
3
3
3
3
3
3
3
3
3
3
3
3
3
3
3
3
3
3
3
3
3
3
3
3
3
3
3
3
3
3
3
3
3
3
3
3
3
3
3
3
3
3
3
3
3
3
3
3
3
3
3
3
3
3
3
3
3
3
3
3
3
3
3
3
3
3
3
3
3
3
3
3
3
3
3
3
3
3
3
3
3
3
3
3
3
3
3
3
3
3
3
3
3
3
3
3
3
3
3
3
3
3
3
3
3
3
3
3
3
3
3
3
3
3
3
3
3
3
3
3
3
3
3
3
3
3
3
3
3
3
3
3
3
3
3
3
3
3
3
3
3
3
3
3
3
3
3
3
3
3
3
3
3
3
3
POINT_DATA 4085
VECTORS Displacement float
-0.267638 4.82555 0.925428
-0.266021 -2.68938 0.927997
-0.455172 0.466119 0.437026
-0.456118 1.08311 0.436034
-0.0957921 0.2116 0.275375
-0.100754 0.799621 0.270485
-0.32705 0.377519 0.113095
-0.333307 0.157214 0.108903
-0.0934183 0.117559 -0.0337856
-0.0969277 0.150479 -0.0347454
-0.151278 0.0254415 -0.216527
-0.175129 -0.219378 -0.210638
-0.217059 -0.510418 -0.58654
-0.226631 0.0836607 -0.583325
0.276763 -0.611478 -0.960248
0.265925 0.0135513 -0.955005
0.150302 -4.12533 -0.676024
0.13667 3.39611 -0.675434
-79.8585 211.66 131.754
-79.8648 211.669 131.76
77.9675 53.8001 131.757
77.9647 53.8036 131.754
0 0 -261.873
0 0 1.96509
0 0 -261.872
0 0 -264.654
0 0 -2.8315
0 0 -267.281
0 0 -3.95706
0 0 -267.238
0 0 -2.99701
0 0 -265.673
0 0 -1.09297
0 0 -263.762
0 0 -263.307
0 0 0.235844
0 0 -263.307
0 0 -263.763
0 0 -1.09395
0 0 -265.674
0 0 -2.99841
0 0 -267.24
0 0 -3.95893
0 0 -267.283
0 0 -2.83382
0 0 -264.657
0 0 -262.877
0 0 0.886406
0 0 -262.698
0 0 0.868274
0 0 -262.85
0 0 0.655275
0 0 -263.091
0 0 0.430715
0 0 -263.294
0 0 -263.37
0 0 0.25848
0 0 -263.372
0 0 -263.299
0 0 0.426472
0 0 -263.094
0 0 0.651875
0 0 -262.853
0 0 0.86575
0 0 -262.7
0 0 0.884745
0 0 -262.878
0 0 -263.441
0 0 0.0849558
0 0 -263.662
0 0 -0.0923073
0 0 -263.778
0 0 -0.126812
0 0 -263.74
0 0 -0.0200872
0 0 -263.601
0 0 -263.59
0 0 0.0520677
0 0 -263.592
0 0 -263.605
0 0 -0.024166
0 0 -263.744
0 0 -0.131055
0 0 -263.783
0 0 -0.0967107
0 0 -263.666
0 0 0.0803893
0 0 -263.446
0 0 -263.557
0 0 0.0389212
0 0 -263.693
0 0 -0.0919448
0 0 -263.792
0 0 -0.138581
0 0 -263.785
0 0 -0.0859005
0 0 -263.713
0 0 -263.715
0 0 -0.063891
0 0 -263.715
0 0 -263.713
0 0 -0.086314
0 0 -263.786
0 0 -0.139796
0 0 -263.793
0 0 -0.0940518
0 0 -263.696
0 0 0.0359167
0 0 -263.561
0 0 -263.726
0 0 -0.134187
0 0 -263.874
0 0 -0.274636
0 0 -263.975
0 0 -0.322323
0 0 -263.965
0 0 -0.268125
0 0 -263.888
0 0 -263.919
0 0 -0.2762
0 0 -263.915
0 0 -263.884
0 0 -0.264052
0 0 -263.961
0 0 -0.319641
0 0 -263.973
0 0 -0.273255
0 0 -263.874
0 0 -0.134032
0 0 -263.727
0 0 -263.932
0 0 -0.393321
0 0 -264.168
0 0 -0.626188
0 0 -264.352
0 0 -0.745568
0 0 -264.386
0 0 -0.707627
0 0 -264.283
0 0 -264.226
0 0 -0.597538
0 0 -264.224
0 0 -264.279
0 0 -0.703457
0 0 -264.382
0 0 -0.74029
0 0 -264.346
0 0 -0.619793
0 0 -264.161
0 0 -0.386013
0 0 -263.925
0 0 -264.168
0 0 -0.491081
0 0 -264.066
0 0 -0.388002
0 0 -263.959
0 0 -0.315843
0 0 -263.947
0 0 -0.428225
0 0 -264.24
0 0 -264.696
0 0 -1.15561
0 0 -264.694
0 0 -264.235
0 0 -0.423164
0 0 -263.942
0 0 -0.311244
0 0 -263.955
0 0 -0.383893
0 0 -264.062
0 0 -0.487444
0 0 -264.165
0 0 -265.181
0 0 -2.55559
0 0 -267.173
0 0 -4.54259
0 0 -268.817
0 0 -5.57044
0 0 -268.91
0 0 -4.47191
0 0 -266.28
0 0 -263.461
0 0 0.376078
0 0 -263.462
0 0 -266.279
0 0 -4.47141
0 0 -268.909
0 0 -5.5687
0 0 -268.814
0 0 -4.53952
0 0 -267.169
0 0 -2.55123
0 0 -265.176
0 0 -260.268
0 0 10.5583
0 0 -243.27
0 0 32.0873
0 0 -217.731
0 0 61.0604
0 0 -185.914
0 0 95.1125
0 0 -150.248
79.8618 -211.662 -131.76
-79.8603 211.664 131.757
79.863 -211.666 -131.762
0 0 -150.245
0 0 95.1159
0 0 -185.912
0 0 61.0628
0 0 -217.729
0 0 32.0887
0 0 -243.269
0 0 10.5589
0 0 -260.267
0 0 -258.723
0 0 12.0186
0 0 -241.932
0 0 33.2862
0 0 -216.702
0 0 61.9106
0 0 -185.267
0 0 95.5549
0 0 -150.026
-77.9674 -53.8027 -131.762
77.967 53.8015 131.758
-77.9676 -53.8027 -131.76
0 0 -150.037
0 0 95.5477
0 0 -185.274
0 0 61.9052
0 0 -216.707
0 0 33.2838
0 0 -241.933
0 0 12.0192
0 0 -258.721
0 0 -0.929712
0 0 -264.454
0 0 -0.928466
0 0 -266.127
0 0 -2.4973
0 0 -266.126
0 0 -3.47889
0 0 -266.959
0 0 -3.47784
0 0 -267.315
0 0 -3.68345
0 0 -267.314
0 0 -3.51463
0 0 -267.035
0 0 -3.51381
0 0 -266.483
0 0 -2.87563
0 0 -266.482
0 0 -2.06655
0 0 -265.645
0 0 -2.06596
0 0 -264.741
0 0 -1.17003
0 0 -264.74
0 0 -0.315562
0 0 -263.966
0 0 -0.31514
0 0 0.645923
0 0 -262.987
0 0 0.646538
0 0 -262.79
0 0 0.800439
0 0 -262.789
0 0 0.872405
0 0 -262.757
0 0 0.873448
0 0 -262.78
0 0 0.829383
0 0 -262.779
0 0 0.754435
0 0 -262.872
0 0 0.755915
0 0 -262.978
0 0 0.644564
0 0 -262.977
0 0 0.53419
0 0 -263.093
0 0 0.536103
0 0 -263.2
0 0 0.432073
0 0 -263.198
0 0 0.341056
0 0 -263.289
0 0 0.343296
0 0 0.176529
0 0 -263.469
0 0 0.178818
0 0 -263.564
0 0 0.0765235
0 0 -263.562
0 0 -0.0157764
0 0 -263.658
0 0 -0.0135363
0 0 -263.732
0 0 -0.0818771
0 0 -263.73
0 0 -0.121689
0 0 -263.766
0 0 -0.119529
0 0 -263.771
0 0 -0.117339
0 0 -263.769
0 0 -0.0867211
0 0 -263.738
0 0 -0.084645
0 0 -263.686
0 0 -0.033305
0 0 -263.683
0 0 0.0288571
0 0 -263.636
0 0 0.0307448
0 0 0.0626276
0 0 -263.61
0 0 0.0642455
0 0 -263.641
0 0 0.0133412
0 0 -263.639
0 0 -0.0385034
0 0 -263.702
0 0 -0.0372302
0 0 -263.753
0 0 -0.090261
0 0 -263.752
0 0 -0.124598
0 0 -263.785
0 0 -0.12377
0 0 -263.797
0 0 -0.132125
0 0 -263.796
0 0 -0.119571
0 0 -263.783
0 0 -0.119182
0 0 -263.754
0 0 -0.0922227
0 0 -263.754
0 0 -0.0617125
0 0 -263.729
0 0 -0.0617518
0 0 -0.0832979
0 0 -263.754
0 0 -0.0833448
0 0 -263.807
0 0 -0.146322
0 0 -263.807
0 0 -0.210813
0 0 -263.875
0 0 -0.211197
0 0 -263.931
0 0 -0.268089
0 0 -263.932
0 0 -0.305062
0 0 -263.966
0 0 -0.306077
0 0 -263.976
0 0 -0.315142
0 0 -263.978
0 0 -0.302391
0 0 -263.965
0 0 -0.304076
0 0 -263.935
0 0 -0.281655
0 0 -263.937
0 0 -0.253097
0 0 -263.923
0 0 -0.255749
0 0 -0.310326
0 0 -263.983
0 0 -0.314041
0 0 -264.059
0 0 -0.41399
0 0 -264.062
0 0 -0.515001
0 0 -264.17
0 0 -0.518458
0 0 -264.264
0 0 -0.616051
0 0 -264.268
0 0 -0.690305
0 0 -264.335
0 0 -0.693226
0 0 -264.374
0 0 -0.727637
0 0 -264.376
0 0 -0.731384
0 0 -264.372
0 0 -0.733745
0 0 -264.34
0 0 -0.700551
0 0 -264.342
0 0 -0.648279
0 0 -264.288
0 0 -0.65018
0 0 -0.540829
0 0 -264.175
0 0 -0.542606
0 0 -264.12
0 0 -0.495367
0 0 -264.122
0 0 -0.442897
0 0 -264.071
0 0 -0.444833
0 0 -264.015
0 0 -0.39831
0 0 -264.017
0 0 -0.353774
0 0 -263.979
0 0 -0.355951
0 0 -263.954
0 0 -0.349388
0 0 -263.956
0 0 -0.371611
0 0 -263.998
0 0 -0.374029
0 0 -264.09
0 0 -0.503332
0 0 -264.092
0 0 -0.707603
0 0 -264.335
0 0 -0.710216
0 0 -1.73906
0 0 -265.389
0 0 -1.74151
0 0 -266.197
0 0 -2.63287
0 0 -266.2
0 0 -3.5675
0 0 -267.143
0 0 -3.56936
0 0 -268.019
0 0 -4.41711
0 0 -268.021
0 0 -5.09166
0 0 -268.607
0 0 -5.09286
0 0 -268.916
0 0 -5.28938
0 0 -268.917
0 0 -5.10468
0 0 -268.579
0 0 -5.10523
0 0 -267.754
0 0 -4.12806
0 0 -267.754
0 0 -2.55181
0 0 -266.07
0 0 -2.5517
0 0 4.61538
0 0 -258.444
0 0 4.61543
0 0 -251.821
0 0 12.0848
0 0 -251.821
0 0 21.2377
0 0 -241.951
0 0 21.2372
0 0 -230.586
0 0 33.2157
0 0 -230.586
0 0 46.4968
0 0 -216.787
0 0 46.4958
0 0 -201.888
0 0 61.8203
0 0 -201.889
0 0 78.0363
0 0 -185.341
0 0 78.0349
0 0 -168.116
0 0 95.498
0 0 -168.117
0 0 113.418
0 0 -150.054
0 0 113.416
0 0 6.1516
0 0 -256.918
0 0 6.1507
0 0 -250.379
0 0 13.528
0 0 -250.379
0 0 22.5673
0 0 -240.63
0 0 22.5677
0 0 -229.404
0 0 34.3998
0 0 -229.403
0 0 47.5181
0 0 -215.772
0 0 47.52
0 0 -201.055
0 0 62.6583
0 0 -201.051
0 0 78.6769
0 0 -184.704
0 0 78.6801
0 0 -167.688
0 0 95.9324
0 0 -167.684
0 0 113.636
0 0 -149.837
0 0 113.637
0 0 0
0 0 0
0 0 0
0 0 0
-0.797078 0.0365442 -0.0214798
0.795207 -0.0385926 0.00379387
0.795049 -0.0377233 0.00338289
-0.797069 0.0352292 -0.0208665
0 0 0
0 0 0
0.791905 -0.0383135 0.0044356
0.79173 -0.0378693 0.00482834
0 0 0
0 0 0
0 0 0
0 0 0
0 0 0
0 0 0
0.792547 -0.0379295 -0.00492389
-0.798658 0.0368041 -0.0210295
0.79386 -0.0384392 0.00553198
-0.799945 0.0362795 -0.0368887
0.793827 -0.0379379 0.00512205
-0.798536 0.035584 -0.02054
-16.8847 12.7432 0.00425623
-17.7137 13.3764 0.011212
32.7422 -25.6867 0.0137074
-0.00292436 -0.0118133 0.0253048
-4.65629 3.69389 0.0195567
1.63553 -1.37386 0.0245086
0.0487483 -0.0795286 0.0222028
-2.09664 1.6966 0.0252042
-0.717332 0.540234 0.0205508
0.0949961 -0.152197 0.0243992
0.594724 -0.582884 0.0191632
-0.869774 0.698246 0.0230092
0.250018 -0.295674 0.0170531
0.0122173 -0.0829397 0.0215874
3.98437 -3.71985 0.0150475
5.72352 -5.33956 0.0201563
2.20167 -2.01004 0.0131466
2.19987 -2.01021 0.0187544
-0.389157 0.517461 0.0113258
0.312098 -0.17985 0.0173971
0.243696 -0.10911 0.00957577
0.856123 -0.739046 0.016088
0.564774 -0.433303 0.00789579
0.320038 -0.175157 0.0148257
0.318399 -0.171712 0.0062896
0.79235 -0.695166 0.0136055
1.2536 -1.21087 0.00476532
0.444758 -0.288034 0.0124183
0.403923 -0.239026 0.0033372
0.152103 0.0588121 0.0112482
0.14695 0.0662376 0.0020289
0.910271 -0.8791 0.0100684
0.576967 -0.457328 0.00087779
1.11705 -1.1547 0.00883723
0.399512 -0.208414 -6.29654e-05
0.682597 -0.589752 0.0074975
-1.45468 2.3573 -0.000742038
2.5016 -3.22644 0.00595702
20.9326 -29.8754 -0.00135087
-20.9376 29.8739 -0.0403022
-2.50498 3.22417 -0.023766
1.44964 -2.3587 -0.0404818
-0.686247 0.587478 -0.0253723
-0.404249 0.207114 -0.0404867
-1.12084 1.15236 -0.0267319
-0.581443 0.456092 -0.0404438
-0.914116 0.876703 -0.0279445
-0.151213 -0.0674479 -0.0403374
-0.155943 -0.0612681 -0.0290381
-0.408 0.237814 -0.0401571
-0.448546 0.285528 -0.0300267
-1.25751 1.20964 -0.0398996
-0.796053 0.692618 -0.0309174
-0.322137 0.170457 -0.0395656
-0.32363 0.172577 -0.0317135
-0.56834 0.432026 -0.0391577
-0.859584 0.736449 -0.0324157
-0.24708 0.107824 -0.0386796
-0.315413 0.177257 -0.0330232
0.385969 -0.518732 -0.038135
-2.20303 2.00765 -0.033535
-2.20465 2.00883 -0.0375256
-5.7265 5.33708 -0.0339527
-3.98713 3.71876 -0.0368468
-0.0149665 0.080591 -0.0342852
-0.252577 0.294825 -0.0360813
0.867336 -0.70038 -0.0345615
-0.597016 0.582457 -0.0351617
0.715535 -0.540294 -0.0336062
2.09478 -1.69737 -0.0338335
-0.0518667 0.0800695 -0.0325167
-1.63709 1.37366 -0.0315746
4.65468 -3.69312 -0.0266302
-0.00440769 0.0124015 -0.0308396
-32.7437 25.6872 -0.0181903
17.7131 -13.376 -0.0136219
16.8841 -12.7425 -0.00604368
20.9324 -29.8752 -0.0017727
2.50175 -3.2268 0.00627513
-1.45483 2.35748 -0.00104038
0.682723 -0.589899 0.00773249
0.399387 -0.208459 -0.000244885
1.11714 -1.15467 0.00899818
0.576882 -0.457566 0.000783204
0.910332 -0.87896 0.0101728
0.146902 0.0658617 0.00199552
0.152134 0.0590218 0.0113125
0.403906 -0.239498 0.00334339
0.444764 -0.287789 0.0124558
1.25361 -1.21141 0.00479408
0.792337 -0.694908 0.0136253
0.318427 -0.172301 0.00632836
0.320014 -0.174897 0.0148325
0.564817 -0.433931 0.00793602
0.856095 -0.738792 0.0160811
0.243749 -0.109773 0.00961243
0.312074 -0.179604 0.0173702
-0.389097 0.516768 0.0113568
2.19986 -2.00997 0.0186946
2.20173 -2.01076 0.0131716
5.72353 -5.33934 0.0200429
3.98443 -3.72059 0.0150639
0.0122347 -0.0827375 0.0213921
0.250065 -0.296414 0.017045
-0.869754 0.69839 0.0226917
0.594678 -0.583564 0.0191302
0.095048 -0.152402 0.0238714
-0.717455 0.539701 0.0205595
-2.09652 1.69662 0.0245831
0.04842 -0.0786977 0.0223647
1.63589 -1.3739 0.0236368
-4.65659 3.69399 0.0204371
-0.00295603 -0.00686001 0.0240609
32.7425 -25.6869 0.0146552
-17.714 13.3764 0.010656
-16.8845 12.7422 0.00457014
16.8841 -12.7429 -0.00629828
17.7131 -13.3767 -0.0129961
-32.7436 25.6866 -0.0190756
-0.00468592 0.00642502 -0.0291004
4.65462 -3.69444 -0.0276254
-1.63707 1.37374 -0.031164
-0.051921 0.0776743 -0.0329465
2.09486 -1.69741 -0.0338642
0.715393 -0.541128 -0.0341175
-0.0965509 0.15102 -0.0347411
-0.597095 0.581519 -0.0355738
0.867476 -0.700206 -0.0345461
-0.252609 0.294121 -0.0363277
-0.0148563 0.0806276 -0.0342818
-3.98717 3.71817 -0.0369987
-5.7264 5.33708 -0.0339462
-2.20469 2.00828 -0.0376133
-2.20295 2.00767 -0.0335196
0.385927 -0.519268 -0.0381813
-0.315343 0.177308 -0.0329975
-0.24712 0.107294 -0.0387005
-0.859525 0.736534 -0.0323815
-0.568376 0.431503 -0.0391627
-0.323579 0.172694 -0.0316752
-0.32217 0.169943 -0.0395584
-0.79601 0.692766 -0.0308823
-1.25754 1.20914 -0.0398784
-0.44851 0.285706 -0.030006
-0.408025 0.237324 -0.040115
-0.155914 -0.0610575 -0.0290469
-0.151234 -0.0679273 -0.0402629
-0.914094 0.876951 -0.0280025
-0.58146 0.455616 -0.0403219
-1.12082 1.15266 -0.0268626
-0.404262 0.206626 -0.0403011
-0.686242 0.587852 -0.0256015
1.44963 -2.35922 -0.0402185
-2.50498 3.2247 -0.0241221
-20.9376 29.8734 -0.0399493
0 0 0
0 0 0
0 0 0
0 0 0
0 0 0
-0.796401 0.0359851 -0.0216583
0.791811 -0.0381681 0.00423808
-0.7955 0.036161 -0.0377356
0.791725 -0.0378856 0.00463007
-0.796296 0.0362551 -0.0221098
-16.8836 12.7423 0.00472286
-17.7128 13.3761 0.0104892
32.7454 -25.6866 0.0155233
0.0108333 -0.00725146 0.0235258
-4.65263 3.69418 0.0223716
1.63638 -1.37424 0.0224509
0.0544959 -0.0784611 0.0250516
-2.09588 1.69645 0.023138
-0.715333 0.5399 0.0235045
0.0947044 -0.152319 0.022149
0.596636 -0.583379 0.0221786
-0.869382 0.698495 0.0206678
0.251636 -0.296257 0.0201578
0.0127374 -0.0826279 0.0191548
3.98576 -3.7205 0.0182351
5.72402 -5.33924 0.0176608
2.20293 -2.01073 0.0163829
2.20029 -2.00989 0.0161986
-0.387985 0.516766 0.014591
0.312416 -0.179522 0.0147844
0.244796 -0.109801 0.0128532
0.856345 -0.738709 0.0134282
0.56581 -0.433983 0.0111647
0.320163 -0.174804 0.0121392
0.31938 -0.172379 0.00951821
0.792378 -0.694795 0.0109301
1.25453 -1.21153 0.00790201
0.44469 -0.287641 0.0098181
0.404811 -0.239662 0.00629951
0.15194 0.0592248 0.00882424
0.1478 0.0656229 0.00469254
0.91001 -0.878679 0.00796769
0.577791 -0.457902 0.00306914
1.11667 -1.15429 0.00725578
0.400342 -0.208912 0.00143454
0.68206 -0.589405 0.00667122
-1.45383 2.3569 -0.000192795
2.50075 -3.22619 0.00613543
20.9328 -29.8759 -0.0019967
20.9326 -29.8749 -0.00158553
2.50093 -3.22691 0.00582578
-1.45401 2.35769 0.000104643
0.682233 -0.5901 0.00644186
0.40017 -0.208139 0.00161956
1.11682 -1.15492 0.00709906
0.577641 -0.457159 0.00316874
0.910133 -0.879219 0.00786741
0.147671 0.0663201 0.00473116
0.15204 0.0587766 0.00876494
0.4047 -0.239006 0.00629819
0.444771 -0.28801 0.00978676
1.25444 -1.21089 0.00787805
0.792447 -0.695103 0.0109177
0.319289 -0.171756 0.00948492
0.320226 -0.175066 0.0121417
0.56572 -0.433356 0.0111317
0.856409 -0.738934 0.0134468
0.244699 -0.109165 0.0128272
0.312488 -0.179717 0.0148262
-0.388095 0.517414 0.0145765
2.20037 -2.01005 0.0162774
2.2028 -2.01007 0.0163825
5.72411 -5.33936 0.0177987
3.9856 -3.71985 0.018248
0.0128373 -0.08269 0.0193847
0.25143 -0.295659 0.0201762
-0.869309 0.698566 0.0210176
0.596389 -0.582892 0.0221838
0.0947798 -0.151888 0.02263
-0.71559 0.54014 0.0234442
-2.09566 1.6968 0.0236759
0.0541161 -0.0797966 0.0247099
1.63683 -1.37362 0.0233193
-4.6529 3.69319 0.021494
0.0110336 -0.0112719 0.0244537
32.7455 -25.6874 0.014725
-17.713 13.3767 0.0110963
-16.8834 12.743 0.00446671
0 0 0
0 0 0
-0.7983 0.0362703 -0.0386264
0.794476 -0.0382014 -0.00543662
-16.8841 12.7432 0.00455068
16.8838 -12.7423 -0.00621791
-17.7136 13.3765 0.011073
17.7126 -13.3762 -0.0132715
32.7435 -25.6867 0.014071
-32.744 25.6875 -0.0190027
0.00137776 -0.0119097 0.0248791
-0.000540326 0.0121861 -0.0294069
-4.65506 3.69395 0.0199209
4.65446 -3.69323 -0.0276981
1.63608 -1.37391 0.0240641
-1.63736 1.37394 -0.0308042
0.0503248 -0.0795097 0.0226375
-0.0510454 0.0798113 -0.0330483
-2.09608 1.69644 0.0249569
2.09453 -1.6971 -0.0335015
-0.716966 0.540292 0.0208286
0.715214 -0.540574 -0.034068
0.0953857 -0.152349 0.0244247
-0.0973819 0.150971 -0.0345451
0.594856 -0.582818 0.0192751
-0.597189 0.582011 -0.0354276
-0.869257 0.698176 0.0230778
0.86692 -0.700017 -0.0346938
0.25018 -0.295564 0.0170752
-0.252828 0.294455 -0.0360507
0.0127116 -0.0829832 0.0216697
-0.0152973 0.0808596 -0.0345849
3.9845 -3.71974 0.0150297
-3.98741 3.71845 -0.0367226
5.72399 -5.3396 0.020252
-5.72677 5.33732 -0.0342659
2.20178 -2.00995 0.0131096
-2.2049 2.00855 -0.0373995
2.2003 -2.01025 0.0188507
-2.20327 2.00789 -0.0338088
-0.389072 0.517538 0.011283
0.385739 -0.518998 -0.0380348
0.312497 -0.179899 0.0174869
-0.315625 0.177501 -0.0332495
0.243755 -0.10904 0.00953249
-0.247278 0.107559 -0.0386062
0.856495 -0.7391 0.0161715
-0.859771 0.736702 -0.0326009
0.564806 -0.433236 0.00785044
-0.568507 0.43176 -0.0391058
0.320384 -0.175216 0.0149088
-0.323792 0.172836 -0.0318647
0.318409 -0.171646 0.00623534
-0.322274 0.17019 -0.0395323
0.792665 -0.695231 0.0136991
-0.796195 0.692881 -0.0310371
1.2536 -1.2108 0.00468965
-1.25761 1.20938 -0.0398877
0.445034 -0.288107 0.01254
-0.448675 0.28579 -0.0301105
0.403921 -0.238948 0.00321876
-0.408062 0.237552 -0.0401762
0.152324 0.0587241 0.0114271
-0.15607 -0.0610106 -0.0290741
0.146972 0.0663333 0.00183078
-0.151221 -0.0676993 -0.0404052
0.91041 -0.879217 0.0103539
-0.914257 0.87695 -0.0279119
0.577046 -0.457198 0.000536881
-0.581379 0.455856 -0.0405869
1.11707 -1.15486 0.00931109
-1.12102 1.1526 -0.0266013
0.399691 -0.208229 -0.000647701
-0.404081 0.206898 -0.0407391
0.682451 -0.589982 0.00828246
-0.686513 0.587692 -0.02511
-1.45436 2.35755 -0.00170839
1.44994 -2.3589 -0.040873
2.50122 -3.22673 0.00719614
-2.50542 3.22439 -0.0233655
20.9328 -29.8751 -0.00278474
-20.9373 29.8737 -0.0407935
-16.8841 12.7423 0.00487936
16.8837 -12.7431 -0.00643727
-17.7136 13.3762 0.0105078
17.7128 -13.3764 -0.0126149
32.7435 -25.6867 0.0151583
-32.744 25.6864 -0.01995
0.00152649 -0.00682599 0.0234514
-0.000539116 0.00674955 -0.0281638
-4.65521 3.69406 0.0208205
4.65464 -3.69441 -0.0288199
1.63617 -1.37392 0.0232376
-1.63756 1.37354 -0.03034
0.0502654 -0.078685 0.0226924
-0.0508893 0.077887 -0.0336788
-2.09608 1.69661 0.0243585
2.0944 -1.69744 -0.0334957
-0.71699 0.539604 0.0207839
0.71522 -0.541154 -0.0346603
0.0952147 -0.152468 0.0239054
-0.0974309 0.15106 -0.0345565
0.594982 -0.583586 0.0192616
-0.597224 0.581476 -0.0358233
-0.869313 0.698355 0.0227763
0.866958 -0.700112 -0.0347206
0.250273 -0.296356 0.0170835
-0.252833 0.293927 -0.0362953
0.0126831 -0.0827535 0.021479
-0.0152342 0.0808138 -0.0345761
3.98459 -3.72051 0.0150443
-3.98741 3.7179 -0.0368682
5.72395 -5.33937 0.0201389
-5.72671 5.33733 -0.0342451
2.20186 -2.01068 0.0131303
-2.20492 2.00798 -0.0374788
2.20026 -2.01002 0.0187896
-2.20321 2.00794 -0.0337819
-0.388999 0.516845 0.0113113
0.385719 -0.519565 -0.0380727
0.312455 -0.17966 0.017458
-0.315574 0.177588 -0.0332164
0.243818 -0.109701 0.00956864
-0.247302 0.107001 -0.0386195
0.856454 -0.73885 0.0161619
-0.859729 0.736817 -0.0325623
0.564861 -0.433867 0.00789204
-0.568529 0.431214 -0.039104
0.320346 -0.174953 0.014912
-0.323762 0.17298 -0.0318241
0.318454 -0.172248 0.00627701
-0.322288 0.169654 -0.0395188
0.792633 -0.694955 0.0137143
-0.796179 0.693058 -0.031001
1.25363 -1.21137 0.00472255
-1.25761 1.20885 -0.0398604
0.44501 -0.287822 0.0125717
-0.448676 0.286007 -0.0300895
0.403943 -0.239478 0.00323004
-0.408049 0.23702 -0.0401281
0.152309 0.0590119 0.0114846
-0.156091 -0.0607426 -0.029083
0.146982 0.0658495 0.00180313
-0.151191 -0.0682449 -0.0403247
0.910404 -0.878933 0.0104508
-0.914302 0.877284 -0.0279702
0.577043 -0.457626 0.000448422
-0.581329 0.45528 -0.0404589
1.11707 -1.15459 0.00946385
-1.12109 1.15302 -0.0267331
0.399676 -0.208586 -0.000822966
-0.404012 0.206272 -0.0405458
0.682463 -0.589745 0.00850808
-0.686604 0.588225 -0.0253442
-1.45439 2.35728 -0.00199903
1.45003 -2.35958 -0.0405974
2.50125 -3.22658 0.00751005
-2.50553 3.22507 -0.0237323
20.9327 -29.8754 -0.0032321
-20.9372 29.8731 -0.0404281
-16.8841 12.7427 0.00522683
-17.7131 13.3764 0.0100973
32.7435 -25.6869 0.0153695
0.00455701 -0.00925061 0.0234174
-4.65498 3.69395 0.021322
1.63651 -1.37384 0.0223738
0.0511689 -0.0791997 0.024502
-2.09594 1.69667 0.0225403
-0.716593 0.53978 0.0233927
0.0949208 -0.152156 0.0213298
0.595464 -0.583477 0.0227238
-0.86943 0.698558 0.0191831
0.250676 -0.296228 0.0213187
0.0125983 -0.0825727 0.0171384
3.98495 -3.7204 0.0198758
5.72387 -5.33919 0.015207
2.20221 -2.01059 0.0184517
2.20016 -2.00984 0.0133561
-0.388646 0.516912 0.0170716
0.312319 -0.179492 0.0115678
0.244182 -0.109652 0.0157467
0.856284 -0.73869 0.00983494
0.565238 -0.433834 0.0144825
0.320139 -0.174801 0.00815553
0.318848 -0.17223 0.0132817
0.792387 -0.69481 0.00652924
1.25405 -1.21137 0.0121465
0.44472 -0.287682 0.00495596
0.404381 -0.239498 0.0110799
0.151971 0.0591513 0.00343461
0.147452 0.065806 0.0100868
0.910011 -0.878791 0.00196144
0.577554 -0.457698 0.00917621
1.11661 -1.15444 0.000526674
0.400244 -0.208693 0.00836599
0.681914 -0.589584 -0.000893906
-1.45374 2.35713 0.0076832
2.50055 -3.22638 -0.002392
20.9334 -29.8755 0.0070094
16.8832 -12.7427 -0.00638185
17.7127 -13.3763 -0.0133148
-32.7443 25.6869 -0.0191205
0.00143045 0.00950336 -0.0292476
4.65446 -3.69385 -0.0278238
-1.63757 1.37381 -0.0311212
-0.0506725 0.0787817 -0.0326518
2.09439 -1.69714 -0.034474
0.714982 -0.540942 -0.0332408
-0.0976323 0.151124 -0.0360246
-0.59739 0.581673 -0.0338538
0.866765 -0.699988 -0.0369472
-0.252933 0.294095 -0.0335412
-0.0155144 0.0808944 -0.0376993
-3.98741 3.71808 -0.0331984
-5.72706 5.33738 -0.03838
-2.20481 2.00818 -0.0327921
-2.20363 2.00797 -0.0389956
0.385917 -0.519361 -0.0323077
-0.316038 0.177608 -0.0395456
-0.247029 0.107205 -0.031743
-0.860229 0.736826 -0.0400239
-0.568193 0.431414 -0.0311011
-0.324292 0.172976 -0.0404218
-0.321895 0.169851 -0.0303876
-0.796736 0.693038 -0.0407279
-1.25717 1.20904 -0.0296106
-0.44926 0.285969 -0.0409271
-0.407547 0.237217 -0.0287827
-0.156708 -0.0608056 -0.0409978
-0.150625 -0.0680408 -0.0279246
-0.914964 0.877189 -0.0409074
-0.580684 0.4555 -0.0270698
-1.12182 1.15288 -0.0406077
-0.403266 0.206518 -0.0262669
-0.687423 0.588033 -0.0400335
1.45089 -2.35931 -0.0255635
-2.50646 3.2248 -0.0390799
-20.9364 29.8733 -0.0247907
0 0 0
0 0 0
-0.795802 0.0360853 -0.037662
0.791429 -0.0381186 -0.00422453
-16.8842 12.7423 0.00490482
16.8844 -12.7431 -0.0064045
-17.7128 13.3761 0.0104044
17.7137 -13.3763 -0.0124507
32.7438 -25.6867 0.0155683
-32.7438 25.6861 -0.0199928
0.00706993 -0.00691881 0.022992
-0.00811367 0.00678161 -0.0276019
-4.65447 3.69406 0.0220213
4.65401 -3.69467 -0.0291983
1.63656 -1.37404 0.0220809
-1.63601 1.37367 -0.029071
0.0522791 -0.0785892 0.0244949
-0.0534878 0.0776663 -0.034262
-2.09594 1.69655 0.0227957
2.09584 -1.69727 -0.0320624
-0.716096 0.539657 0.0229436
0.715105 -0.541175 -0.0352417
0.0947471 -0.152336 0.0220167
-0.0953214 0.151167 -0.0331264
0.596083 -0.583575 0.0216341
-0.597422 0.581562 -0.0364736
-0.8696 0.698484 0.0206259
0.868455 -0.699993 -0.0333519
0.251216 -0.296408 0.0196434
-0.252847 0.294012 -0.0370044
0.0124627 -0.0826001 0.019144
-0.0140261 0.0808798 -0.0332555
3.98543 -3.72061 0.0177316
-3.98736 3.71798 -0.0376004
5.72373 -5.3392 0.0176708
-5.72567 5.33735 -0.0329742
2.20265 -2.01082 0.0158989
-2.20486 2.00806 -0.0382206
2.20001 -2.00984 0.0162301
-2.20228 2.00794 -0.0325555
-0.388217 0.516686 0.0141307
0.385749 -0.5195 -0.0388246
0.312148 -0.179473 0.014835
-0.314723 0.177569 -0.0320261
0.244603 -0.109873 0.0124177
-0.24731 0.107058 -0.0393868
0.856089 -0.738661 0.0134951
-0.858946 0.736789 -0.0313992
0.565656 -0.434049 0.010755
-0.568582 0.431266 -0.0398917
0.319919 -0.174759 0.0122178
-0.323038 0.172944 -0.0306815
0.319264 -0.172438 0.00913896
-0.32239 0.169708 -0.0403278
0.792142 -0.694755 0.01101
-0.795507 0.69301 -0.0298791
1.25446 -1.21158 0.0075652
-1.25777 1.20891 -0.0406827
0.444453 -0.287611 0.00988072
-0.448051 0.28594 -0.0290003
0.404793 -0.239698 0.00602632
-0.408259 0.237106 -0.0409401
0.151686 0.0592446 0.00884222
-0.15551 -0.0608441 -0.0280582
0.147853 0.0656001 0.00451059
-0.151453 -0.0681207 -0.0410783
0.909716 -0.878666 0.00791168
-0.913765 0.877129 -0.027071
0.577936 -0.457921 0.00300092
-0.581639 0.455465 -0.0410709
1.11632 -1.15427 0.00711127
-1.1206 1.15278 -0.0260602
0.400599 -0.208948 0.00147533
-0.404371 0.206542 -0.0408889
0.681626 -0.58935 0.00646328
-0.686136 0.58789 -0.0250458
-1.45342 2.35683 -9.58911e-05
1.44962 -2.35921 -0.0404939
2.50023 -3.22609 0.00593888
-2.50497 3.22461 -0.0240062
20.9337 -29.876 -0.00190875
-20.9374 29.8736 -0.0396475
-16.8841 12.743 0.00466654
16.8844 -12.7423 -0.00611539
-17.7128 13.3768 0.010978
17.7138 -13.3766 -0.0130424
32.7439 -25.6873 0.0146087
-32.7437 25.6877 -0.0190776
0.00744668 -0.0112263 0.0241868
-0.0082396 0.0115329 -0.0285155
-4.65465 3.69326 0.0211135
4.65435 -3.69301 -0.0281011
1.63679 -1.37344 0.0229331
-1.63625 1.37368 -0.0296585
0.0521234 -0.0799277 0.0243271
-0.0532546 0.0797987 -0.0336025
-2.09584 1.69682 0.0233281
2.09561 -1.69709 -0.032142
-0.716306 0.539992 0.0229683
0.715158 -0.540512 -0.0347347
0.0945707 -0.151996 0.0225231
-0.0955318 0.15107 -0.0331592
0.595905 -0.583072 0.0216025
-0.597416 0.582141 -0.0360675
-0.869563 0.698536 0.0209583
0.868256 -0.699924 -0.0333392
0.251052 -0.295801 0.0196464
-0.252792 0.294568 -0.0367199
0.0125155 -0.082671 0.0193512
-0.0141878 0.0809318 -0.0332381
3.98529 -3.71997 0.0177386
-3.98729 3.71853 -0.0374264
5.72379 -5.33933 0.0177947
-5.7258 5.33736 -0.0329671
2.20254 -2.01017 0.0158969
-2.20479 2.00862 -0.0381189
2.20007 -2.01 0.0162999
-2.20238 2.0079 -0.0325632
-0.388313 0.517328 0.0141165
0.385807 -0.518938 -0.038768
0.312205 -0.179668 0.0148709
-0.314813 0.177494 -0.0320473
0.244519 -0.109245 0.0123923
-0.247259 0.107618 -0.039358
0.856143 -0.738883 0.0135101
-0.859025 0.736679 -0.0314304
0.565579 -0.433434 0.0107221
-0.568534 0.431818 -0.0398806
0.319971 -0.175011 0.0122184
-0.323112 0.172803 -0.0307174
0.319192 -0.171836 0.00910503
-0.322343 0.170247 -0.0403304
0.792194 -0.69504 0.0109974
-0.795579 0.692844 -0.0299116
1.25439 -1.21098 0.00753966
-1.25772 1.20943 -0.0407005
0.444506 -0.287934 0.00985038
-0.448126 0.285759 -0.0290178
0.404724 -0.239107 0.00602262
-0.408201 0.237587 -0.0409801
0.151742 0.0588717 0.0087847
-0.155591 -0.0610243 -0.0280451
0.147784 0.0662029 0.00454648
-0.151383 -0.0676956 -0.0411521
0.909778 -0.879106 0.00781327
-0.913854 0.876971 -0.0270076
0.577867 -0.457286 0.00309836
-0.581556 0.455808 -0.0411938
1.11639 -1.1548 0.00695571
-1.12069 1.15267 -0.025923
0.400529 -0.208256 0.00165936
-0.404275 0.206775 -0.0410774
0.681699 -0.590001 0.00623486
-0.686241 0.587852 -0.0248082
-1.45349 2.35761 0.000200804
1.44973 -2.35912 -0.0407633
2.50031 -3.22685 0.00562567
-2.50508 3.22466 -0.0236432
20.9336 -29.875 -0.00146289
-20.9372 29.8733 -0.040001
16.8848 -12.7427 -0.0063691
17.7139 -13.3764 -0.0128341
-32.7438 25.6869 -0.019489
-0.00986228 0.00914976 -0.0278164
4.65392 -3.69388 -0.02876
-1.63579 1.37366 -0.0288489
-0.0539147 0.0787205 -0.0339416
2.09602 -1.69711 -0.0317228
0.715148 -0.540835 -0.0348305
-0.0949728 0.15119 -0.0330465
-0.597458 0.581887 -0.0357305
0.868793 -0.699894 -0.0338587
-0.252961 0.294302 -0.0356803
-0.0136084 0.0809504 -0.0345363
-3.98756 3.71825 -0.035502
-5.72517 5.33739 -0.035171
-2.20515 2.00832 -0.0352249
-2.20172 2.00795 -0.03576
0.385373 -0.519236 -0.0348439
-0.314105 0.177563 -0.0362987
-0.24776 0.10732 -0.0343596
-0.858285 0.736765 -0.0367814
-0.569094 0.431523 -0.033774
-0.322346 0.172905 -0.0372041
-0.322954 0.169957 -0.0330854
-0.794796 0.692958 -0.0375675
-1.25837 1.20915 -0.0322858
-0.447333 0.285881 -0.0378783
-0.408883 0.237322 -0.0313614
-0.1548 -0.0609009 -0.0381472
-0.152084 -0.0679361 -0.030295
-0.913075 0.877086 -0.0383842
-0.582266 0.455604 -0.0290746
-1.11993 1.15277 -0.038588
-0.404987 0.20662 -0.0277036
-0.685506 0.587916 -0.0387325
1.44903 -2.35921 -0.0261985
-2.50437 3.22468 -0.0387322
-20.9378 29.8734 -0.0243774
16.8838 -12.7428 -0.00626207
-16.8842 12.7428 0.00535324
17.7132 -13.3763 -0.012931
-17.7138 13.3764 0.00960633
-32.7442 25.6868 -0.0195383
32.743 -25.6868 0.0160935
-0.00213311 0.00962717 -0.0286469
-0.00084882 -0.0093552 0.0222946
4.65433 -3.6939 -0.0282857
-4.65581 3.69391 0.02248
-1.63709 1.37387 -0.0307232
1.63595 -1.37383 0.021407
-0.0515454 0.0787139 -0.032958
0.0493992 -0.0791456 0.0250251
2.09475 -1.69713 -0.0341167
-2.09632 1.69657 0.0219992
0.715268 -0.541047 -0.0333398
-0.717181 0.539961 0.0236795
-0.0970626 0.151094 -0.0358647
0.0951646 -0.152335 0.0208798
-0.597097 0.581584 -0.0337999
0.594806 -0.583226 0.0226797
0.867118 -0.699933 -0.0368569
-0.869497 0.698285 0.0191354
-0.252642 0.294063 -0.0334801
0.250088 -0.295999 0.0210466
-0.0151705 0.0809816 -0.0376854
0.0125232 -0.0828629 0.0172513
-3.98718 3.71805 -0.0331159
3.9844 -3.72016 0.0195548
-5.72671 5.33747 -0.0384036
5.72384 -5.33948 0.0153496
-2.20466 2.00814 -0.0326995
2.20166 -2.01034 0.0181587
-2.20326 2.00805 -0.0390343
2.20019 -2.01013 0.0134772
0.385999 -0.519406 -0.0322158
-0.389199 0.517173 0.0168268
-0.315665 0.177678 -0.0395887
0.312405 -0.179775 0.0116578
-0.247001 0.107155 -0.0316554
0.243627 -0.109382 0.0155474
-0.85986 0.736889 -0.0400694
0.856423 -0.738972 0.00989858
-0.568214 0.431362 -0.031015
0.564683 -0.433558 0.0143205
-0.323929 0.173034 -0.0404738
0.320327 -0.175083 0.00819817
-0.321965 0.1698 -0.0302951
0.318293 -0.171948 0.0131521
-0.796373 0.69309 -0.0407955
0.792623 -0.695094 0.00655162
-1.25729 1.20899 -0.0294984
1.25349 -1.21109 0.0120503
-0.44889 0.286014 -0.0410264
0.445006 -0.287969 0.00495229
-0.407735 0.237173 -0.0286289
0.403817 -0.239206 0.0110251
-0.156312 -0.0607676 -0.0411563
0.152315 0.0588612 0.00339152
-0.150897 -0.0680802 -0.0276917
0.146866 0.0661024 0.0100897
-0.914516 0.87722 -0.0411732
0.910426 -0.879084 0.0018569
-0.581071 0.455465 -0.0266942
0.576929 -0.457397 0.00926218
-1.12128 1.1529 -0.041061
1.11712 -1.15474 0.000329835
-0.403807 0.206487 -0.0256474
0.39955 -0.20839 0.00856746
-0.686752 0.588051 -0.0407955
0.682553 -0.589875 -0.00121659
1.45017 -2.35934 -0.0245608
-1.45454 2.35743 0.00802495
-2.50561 3.22482 -0.0402946
2.50141 -3.22667 -0.00285185
-20.937 29.8733 -0.0232772
20.9327 -29.8753 0.00745571
16.8844 -12.7427 -0.00625852
-16.884 12.7427 0.00540091
17.7131 -13.3764 -0.0127141
-17.7127 13.3764 0.00966491
-32.7433 25.687 -0.0198208
32.7445 -25.6869 0.0165093
-0.0068715 0.00914808 -0.0278392
0.00914615 -0.00925763 0.0220865
4.65472 -3.69368 -0.0291274
-4.65357 3.69373 0.0234562
-1.63673 1.37361 -0.029255
1.63647 -1.37391 0.0209485
-0.0526356 0.0788364 -0.0343207
0.0534937 -0.0790887 0.026311
2.09534 -1.69728 -0.0321716
-2.09608 1.69652 0.0214335
0.715125 -0.540845 -0.0350926
-0.715566 0.540075 0.0250848
-0.0957932 0.150998 -0.0335966
0.09442 -0.152246 0.0202551
-0.597566 0.581841 -0.0358388
0.596582 -0.583106 0.0240682
0.86822 -0.700067 -0.0343715
-0.86983 0.698397 0.0184508
-0.253058 0.294304 -0.0357288
0.251719 -0.295915 0.0224105
-0.0141438 0.0808252 -0.0350388
0.0122338 -0.0827664 0.0165385
-3.98762 3.71828 -0.0355212
3.98594 -3.72012 0.0208668
-5.72569 5.33729 -0.0356586
5.72348 -5.3394 0.0146242
-2.20516 2.00836 -0.0352145
2.20317 -2.01033 0.0194179
-2.20223 2.00787 -0.0362279
2.19973 -2.01006 0.0127416
0.385411 -0.519192 -0.0348071
-0.387696 0.51716 0.0180409
-0.314605 0.177487 -0.0367453
0.311852 -0.179708 0.0109081
-0.247677 0.107364 -0.0343002
0.245119 -0.109411 0.0167271
-0.858769 0.736695 -0.0372062
0.855778 -0.738908 0.00912915
-0.568975 0.431567 -0.0336959
0.56616 -0.433598 0.0154754
-0.322809 0.172838 -0.0376047
0.319601 -0.175018 0.00740571
-0.322806 0.170002 -0.0329961
0.319748 -0.171998 0.0142869
-0.795227 0.692894 -0.0379359
0.791825 -0.695027 0.00573903
-1.25821 1.20919 -0.0321999
1.25492 -1.21114 0.0131607
-0.44772 0.285818 -0.0381975
0.444146 -0.287898 0.00413415
-0.408725 0.237371 -0.0313027
0.405211 -0.239273 0.0120914
-0.155122 -0.060964 -0.0383913
0.151403 0.0589363 0.00260193
-0.151954 -0.0678835 -0.0302944
0.148218 0.066025 0.0110674
-0.913309 0.877022 -0.0385247
0.909476 -0.879003 0.00115968
-0.58219 0.455662 -0.0291586
0.57823 -0.457486 0.0100717
-1.12006 1.1527 -0.0386107
1.11614 -1.15465 -0.000170407
-0.404991 0.206684 -0.0278717
0.4008 -0.208491 0.00908371
-0.685494 0.587847 -0.0386636
0.681535 -0.589782 -0.00136623
1.4489 -2.35914 -0.0264004
-1.45334 2.35732 0.00807264
-2.50422 3.22462 -0.0386467
2.50023 -3.22657 -0.00244584
-20.9383 29.8735 -0.0245412
20.9335 -29.8754 0.00680894
0 0 0
0 0 0
0 0 0
0 0 0
-0.794372 1.04871 -0.0179623
0.791491 -1.05623 0.00160019
0.791476 -1.05637 0.00193835
-0.79416 1.04704 -0.0186604
0 0 0
0 0 0
0.788871 -1.05545 0.000699157
0.78924 -1.05666 0.000339167
0 0 0
0 0 0
0 0 0
0 0 0
0 0 0
0 0 0
0.790925 -1.05608 -0.00692222
-0.794494 1.04843 -0.0202639
0.791305 -1.05632 0.00179279
-0.795265 1.04823 -0.0362533
0.791199 -1.05632 0.0021329
-0.794393 1.04786 -0.0207944
-49.8547 37.626 0.00460995
28.0466 -21.9162 0.0101465
20.9291 -16.408 0.0152087
-0.00657066 0.00894395 0.0218795
4.95361 -3.93086 0.0212239
-7.16967 5.83515 0.0213236
0.042832 -0.0564602 0.0224767
-2.52743 2.07298 0.0219392
0.183153 -0.202559 0.0202311
0.0895141 -0.124649 0.0218285
0.284722 -0.292092 0.0187458
0.833468 -0.772506 0.0190483
1.36649 -1.24688 0.0169272
-0.0443404 0.0261267 0.017159
0.65669 -0.616452 0.0151233
2.20946 -2.06089 0.0154386
-4.59291 4.36634 0.0133319
-0.900364 0.821414 0.0138341
-1.08016 0.996754 0.011574
-1.52042 1.43326 0.0123203
0.453541 -0.557281 0.00985812
-0.0188225 -0.0729365 0.0108887
0.0454005 -0.139908 0.00818413
0.019868 -0.112912 0.00954033
-0.0817893 -0.00295557 0.00654605
0.332591 -0.459261 0.00828296
0.382488 -0.515144 0.00493245
-0.587511 0.593299 0.00713054
-1.087 1.17537 0.00332714
-0.562513 0.552004 0.00610148
10.2106 -12.506 0.00171221
-4.81436 6.08115 0.00521313
-0.59592 0.753122 7.57732e-05
0.536419 -0.70864 0.00447194
-0.492285 0.64878 -0.00157765
0.624153 -0.857613 0.00386045
6.38628 -8.80398 -0.00323103
8.57566 -11.8964 0.00329901
-10.8536 16.1967 -0.00507821
10.8514 -16.2039 -0.0374342
-8.57932 11.8871 -0.0214073
-6.38893 8.7965 -0.0377156
-0.627682 0.848256 -0.0229538
0.489584 -0.656426 -0.0378026
-0.539787 0.699235 -0.0242785
0.593207 -0.760893 -0.037826
4.81113 -6.09058 -0.0254809
-10.2133 12.4981 -0.0377673
0.559392 -0.561431 -0.0265869
1.08436 -1.1833 -0.0376171
0.584474 -0.602711 -0.0276056
-0.385054 0.507177 -0.0373751
-0.335558 0.449883 -0.0285388
0.0793189 -0.00500745 -0.0370456
-0.0227701 0.103597 -0.0293845
-0.0477643 0.131991 -0.0366348
0.0159936 0.0637289 -0.0301381
-0.455795 0.549464 -0.0361491
1.51768 -1.44229 -0.0307941
1.07801 -1.0044 -0.0355954
0.897742 -0.830176 -0.031345
4.59087 -4.37372 -0.0349814
-2.21194 2.05255 -0.0317807
-0.658634 0.609467 -0.0343198
0.042047 -0.0338464 -0.0320851
-1.3683 1.24046 -0.0336377
-0.835613 0.765716 -0.0322332
-0.286524 0.286445 -0.0330551
-0.0929865 0.119155 -0.0327316
-0.184831 0.198286 -0.0321432
2.52593 -2.07728 -0.0309356
-0.0461455 0.0539479 -0.0311584
7.16918 -5.83796 -0.0288747
-4.95611 3.92971 -0.0265367
0.00210614 -0.00982455 -0.0273399
-20.931 16.4075 -0.0182672
-28.0468 21.9165 -0.0127229
49.8541 -37.6256 -0.00602869
-10.8536 16.196 -0.00458839
8.57566 -11.896 0.00304463
6.38626 -8.80449 -0.00285889
0.624168 -0.857189 0.00368751
-0.492319 0.648275 -0.00132367
0.536459 -0.70827 0.00437094
-0.595978 0.752639 0.000238173
-4.81429 6.08144 0.00516501
10.2105 -12.5064 0.00180657
-0.562423 0.552212 0.00608692
-1.08711 1.17495 0.00337266
-0.587402 0.593437 0.00713129
0.382366 -0.51554 0.00494316
0.332711 -0.459177 0.0082827
-0.0819205 -0.0033486 0.00652988
0.0199933 -0.112868 0.00952489
0.0452668 -0.140306 0.0081422
-0.0187005 -0.0729273 0.0108457
0.453414 -0.557685 0.00978357
-1.52031 1.43323 0.0122388
-1.08027 0.996351 0.0114499
-0.900279 0.821341 0.0137048
-4.59299 4.36595 0.0131276
2.20951 -2.06103 0.0152545
0.656655 -0.616797 0.01479
-0.0443656 0.025898 0.0169164
1.3665 -1.24717 0.0163947
0.833332 -0.772805 0.0187603
0.284775 -0.292198 0.0179573
0.089292 -0.123813 0.021459
0.183304 -0.202814 0.0192228
-2.52774 2.07288 0.0216955
0.0430854 -0.0554753 0.0210758
-7.16997 5.83455 0.0215085
4.95377 -3.93008 0.0194841
-0.00655656 0.0113111 0.0223705
20.9289 -16.4072 0.0138261
28.047 -21.9171 0.0104403
-49.8549 37.6255 0.00419886
49.8541 -37.626 -0.00589401
-28.0468 21.916 -0.0136221
-20.9311 16.4066 -0.0177536
0.00235627 -0.0132356 -0.029769
-4.95617 3.92769 -0.0261607
7.16915 -5.83729 -0.0304781
-0.0461147 0.051335 -0.0315464
2.52575 -2.07725 -0.0321656
-0.184683 0.197567 -0.0324855
-0.286456 0.285895 -0.0333788
-0.835816 0.765627 -0.0328269
-1.36826 1.23981 -0.0338955
0.0418592 -0.0337418 -0.0324604
-0.65857 0.60874 -0.0345293
-2.21212 2.05273 -0.0320122
4.59095 -4.37447 -0.0351358
0.897565 -0.829951 -0.0314863
1.07811 -1.00515 -0.0356974
1.51751 -1.44203 -0.0308801
-0.455673 0.548718 -0.0362071
0.0158227 0.064032 -0.0301893
-0.0476282 0.131245 -0.0366591
-0.0229408 0.103941 -0.0294111
0.0794669 -0.00575375 -0.0370481
-0.335731 0.450269 -0.0285429
-0.384896 0.50643 -0.0373688
0.584299 -0.602283 -0.0275822
1.08452 -1.18405 -0.037617
0.559213 -0.560958 -0.0265247
-10.2131 12.4974 -0.0377907
4.81094 -6.09005 -0.0253625
0.593386 -0.761651 -0.0378922
-0.539978 0.699821 -0.0240814
0.489769 -0.657209 -0.0379309
-0.627881 0.848933 -0.0226527
-6.38874 8.79566 -0.0379224
-8.57953 11.888 -0.0209743
10.8516 -16.2047 -0.0377333
0 0 0
0 0 0
0 0 0
0 0 0
0 0 0
-0.793207 1.04715 -0.018794
0.79049 -1.05569 0.00269337
-0.791534 1.04792 -0.0348086
0.790726 -1.05649 0.00233476
-0.79353 1.0487 -0.018223
-49.8534 37.6253 0.00418546
28.0471 -21.9167 0.0108418
20.9324 -16.4079 0.013437
0.0027599 0.0121778 0.023648
4.95704 -3.93085 0.0186346
-7.16838 5.83509 0.0233391
0.0471803 -0.0560357 0.0198959
-2.52495 2.07309 0.0239876
0.183527 -0.203431 0.0176726
0.0952438 -0.123693 0.0240696
0.284785 -0.292861 0.016105
0.83578 -0.772751 0.0214825
1.36621 -1.24776 0.0143414
-0.0422527 0.0259773 0.0197042
0.656372 -0.617305 0.0125925
2.21147 -2.06092 0.018089
-4.5933 4.36552 0.010816
-0.898426 0.821486 0.0165657
-1.08061 0.995966 0.00905355
-1.51857 1.43341 0.0151111
0.453043 -0.558031 0.0073272
-0.0170752 -0.0727315 0.013716
0.044874 -0.140619 0.00564997
0.0214975 -0.112663 0.0123753
-0.0823308 -0.00362868 0.00403273
0.334093 -0.458977 0.0110825
0.38194 -0.515781 0.00248837
-0.586139 0.593611 0.00982685
-1.08755 1.17477 0.00103507
-0.561275 0.552336 0.00859049
10.21 -12.5065 -0.000300013
-4.81326 6.08149 0.00734468
-0.596436 0.752619 -0.00147663
0.537354 -0.708331 0.00604593
-0.492745 0.648369 -0.00243911
0.624879 -0.857373 0.00463568
6.38589 -8.80427 -0.00313561
8.57602 -11.8963 0.00302072
-10.8546 16.1963 -0.00376746
-10.8542 16.1958 -0.00426884
8.57567 -11.8956 0.00328343
6.38625 -8.80476 -0.00350914
0.624545 -0.856928 0.00481349
-0.492419 0.648126 -0.00269134
0.537055 -0.708073 0.00614991
-0.59615 0.752585 -0.00163645
-4.81352 6.08161 0.00739483
10.2103 -12.5064 -0.000392897
-0.561502 0.552379 0.00860652
-1.08733 1.17499 0.000988881
-0.586335 0.59361 0.00982666
0.382138 -0.515476 0.00247446
0.333926 -0.458998 0.0110816
-0.0821466 -0.00326889 0.0040429
0.0213541 -0.112686 0.012387
0.045055 -0.140219 0.00568264
-0.0171984 -0.0727447 0.0137519
0.453233 -0.557604 0.00738829
-1.51868 1.43341 0.0151815
-1.08039 0.99641 0.00915843
-0.898526 0.821525 0.01668
-4.59305 4.36597 0.0109936
2.21137 -2.06084 0.0182546
0.656688 -0.616857 0.0128943
-0.0423897 0.0261046 0.0199225
1.36659 -1.24731 0.0148622
0.835577 -0.772607 0.0217404
0.285162 -0.29249 0.0169565
0.0950404 -0.124827 0.024391
0.183862 -0.202838 0.0187801
-2.52522 2.07282 0.0243721
0.0475828 -0.0565487 0.0212084
-7.16874 5.835 0.0233832
4.95736 -3.93083 0.0203487
0.00277107 0.00887544 0.0230018
20.9321 -16.4079 0.0148941
28.0474 -21.9164 0.0105127
-49.8537 37.6261 0.00464329
0 0 0
0 0 0
-0.79463 1.04825 -0.0364447
0.791553 -1.05639 -0.00485269
-49.8541 37.6261 0.00477099
49.8538 -37.6253 -0.00627401
28.0465 -21.9162 0.0102809
-28.0475 21.9161 -0.0119994
20.9307 -16.4078 0.0151589
-20.9309 16.4078 -0.0196647
-0.00403211 0.00885429 0.0219615
0.00410623 -0.00985786 -0.0258947
4.95527 -3.9308 0.0210354
-4.95558 3.92931 -0.0281533
-7.1697 5.83511 0.0215196
7.16824 -5.83742 -0.027894
0.0447367 -0.056529 0.0223951
-0.0450995 0.0534688 -0.0318535
-2.52709 2.07286 0.021965
2.52552 -2.07677 -0.0309159
0.183908 -0.20259 0.0203341
-0.185145 0.198112 -0.0320914
0.0907268 -0.124932 0.0217336
-0.0921179 0.119437 -0.0330383
0.285476 -0.292059 0.0186992
-0.286973 0.286401 -0.0329724
0.833618 -0.772721 0.0191182
-0.835736 0.766061 -0.032366
1.36706 -1.24685 0.016734
-1.36882 1.24028 -0.0335403
-0.0442016 0.026 0.0173373
0.0419357 -0.0334952 -0.0322876
0.657188 -0.616424 0.0148608
-0.659148 0.609232 -0.0341372
2.20961 -2.06097 0.0156837
-2.21199 2.05288 -0.0320727
-4.59248 4.36636 0.0130233
4.59035 -4.37397 -0.0347156
-0.900218 0.82136 0.0141188
0.897752 -0.829861 -0.0316998
-1.07978 0.996764 0.0112338
1.07749 -1.00465 -0.0352749
-1.52029 1.43322 0.0126334
1.51775 -1.44199 -0.0311816
0.453882 -0.557275 0.00949543
-0.456294 0.549213 -0.0358022
-0.0187174 -0.0729659 0.0112246
0.0160994 0.0640157 -0.030536
0.0457128 -0.139905 0.00780609
-0.0482399 0.131739 -0.0362812
0.0199468 -0.112933 0.00989312
-0.0226316 0.103877 -0.0297798
-0.0815037 -0.00295627 0.00616163
0.0788697 -0.0052634 -0.0366957
0.332647 -0.459273 0.00864266
-0.335391 0.450162 -0.0289278
0.382743 -0.515151 0.00455614
-0.385479 0.506913 -0.0370295
-0.587468 0.593299 0.00747993
0.584673 -0.602427 -0.0279946
-1.08679 1.17535 0.0029811
1.08395 -1.18358 -0.0372641
-0.562465 0.552016 0.00641579
0.559632 -0.561128 -0.026997
10.2107 -12.506 0.00142393
-10.2137 12.4978 -0.0373768
-4.81428 6.08117 0.00546638
4.81143 -6.09024 -0.0259557
-0.595844 0.753094 -0.000133127
0.592768 -0.761246 -0.0373404
0.536541 -0.708629 0.00465335
-0.539398 0.699629 -0.024894
-0.492309 0.648772 -0.00171289
0.489088 -0.656848 -0.0371249
0.624344 -0.857636 0.00399877
-0.627183 0.848736 -0.0238336
6.38612 -8.80394 -0.00334618
-6.38951 8.79597 -0.0366901
8.57593 -11.8965 0.00347227
-8.57875 11.8878 -0.0227539
-10.8542 16.1967 -0.00523712
10.8505 -16.2046 -0.035787
-49.8541 37.6254 0.00440957
49.8539 -37.6264 -0.00617765
28.0466 -21.9171 0.0105691
-28.0477 21.9166 -0.0129122
20.9307 -16.4073 0.0137261
-20.9308 16.406 -0.0191325
-0.00383101 0.0114996 0.0226783
0.00414466 -0.0130081 -0.0276161
4.9554 -3.93002 0.0191528
-4.95566 3.92775 -0.02769
-7.16979 5.83441 0.0216109
7.16839 -5.83755 -0.0294953
0.0447198 -0.0553473 0.0210589
-0.0452656 0.0517022 -0.031929
-2.52711 2.07268 0.0216439
2.52557 -2.07732 -0.0320834
0.183771 -0.202862 0.0192696
-0.185344 0.197625 -0.0324389
0.0904461 -0.123967 0.0213859
-0.0921008 0.11804 -0.0338978
0.285391 -0.292319 0.0179561
-0.287145 0.285744 -0.0332773
0.833566 -0.772897 0.0188284
-0.835772 0.765977 -0.0330052
1.36694 -1.24723 0.0162495
-1.36887 1.23969 -0.0338143
-0.0441893 0.0258468 0.0170989
0.0418655 -0.0334684 -0.0326939
0.657059 -0.616831 0.0145573
-0.659121 0.608595 -0.0343523
2.20967 -2.06107 0.0154996
-2.21209 2.05299 -0.0323225
-4.59262 4.36593 0.0128381
4.59042 -4.37464 -0.0348723
-0.900133 0.821316 0.0139895
0.897628 -0.829686 -0.0318517
-1.07992 0.996334 0.0111221
1.0776 -1.00536 -0.0353786
-1.52019 1.43321 0.0125528
1.51761 -1.44175 -0.0312739
0.453734 -0.557699 0.00942881
-0.456171 0.548486 -0.0358615
-0.0185999 -0.0729413 0.0111832
0.0159512 0.0643132 -0.0305911
0.0455631 -0.140316 0.00776893
-0.0481073 0.130996 -0.0363063
0.0200731 -0.112882 0.00987993
-0.0227822 0.104224 -0.0298087
-0.0816527 -0.00335133 0.0061478
0.0790065 -0.00601182 -0.0366985
0.332778 -0.459195 0.00864511
-0.335539 0.45055 -0.0289327
0.382596 -0.515531 0.00456721
-0.385344 0.506171 -0.0370233
-0.587334 0.593409 0.00748375
0.584531 -0.602009 -0.0279704
-1.08693 1.17498 0.00302549
1.08408 -1.1843 -0.0372644
-0.562333 0.552168 0.00640443
0.5595 -0.560701 -0.0269322
10.2106 -12.5064 0.00151636
-10.2135 12.4971 -0.0374013
-4.81415 6.08138 0.00542103
4.81131 -6.08983 -0.0258328
-0.595982 0.752693 2.75783e-05
0.592876 -0.761849 -0.0374087
0.536667 -0.708332 0.00455404
-0.539509 0.700005 -0.0246908
-0.492444 0.64832 -0.00145967
0.489183 -0.657351 -0.037257
0.624464 -0.857229 0.00382709
-0.627285 0.849048 -0.0235242
6.38599 -8.80448 -0.00297482
-6.38943 8.79561 -0.0369035
8.57604 -11.896 0.00321432
-8.57884 11.888 -0.0223136
-10.8543 16.196 -0.00471141
10.8506 -16.2046 -0.0360863
-49.8541 37.6257 0.00503519
28.0468 -21.9165 0.00993249
20.931 -16.4076 0.0148073
-0.00221066 0.0103887 0.021992
4.95593 -3.93054 0.0207516
-7.16962 5.83488 0.0205676
0.0455922 -0.0560515 0.0232168
-2.52674 2.07282 0.020079
0.183909 -0.202924 0.0217883
0.0917329 -0.12431 0.0196357
0.285284 -0.292525 0.0202452
0.83413 -0.772627 0.0170929
1.36685 -1.24734 0.0185112
-0.0437273 0.0261249 0.0151748
0.656977 -0.61691 0.016932
2.21008 -2.0608 0.0133039
-4.5927 4.36587 0.0154113
-0.899759 0.821565 0.0114829
-1.08 0.996279 0.0139473
-1.51985 1.43345 0.0097135
0.453652 -0.557752 0.0125446
-0.0182925 -0.0727152 0.0079936
0.0454843 -0.140371 0.0112076
0.0203465 -0.112666 0.00632136
-0.0817263 -0.00341017 0.00993915
0.333019 -0.458993 0.00469622
0.382527 -0.515593 0.00874158
-0.587123 0.593594 0.00311825
-1.087 1.17492 0.00761721
-0.562144 0.552332 0.00158696
10.2105 -12.5064 0.00657015
-4.81398 6.08152 9.93242e-05
-0.596065 0.752647 0.00560884
0.536839 -0.70824 -0.00135384
-0.492548 0.648297 0.00475044
0.624639 -0.85719 -0.00279657
6.38586 -8.80446 0.00402165
8.57618 -11.896 -0.00432268
-10.8546 16.1961 0.00329752
49.8534 -37.6258 -0.00632963
-28.0478 21.9163 -0.0125857
-20.9309 16.4069 -0.0194871
0.00523415 -0.0113923 -0.0265414
-4.95557 3.92847 -0.028252
7.16809 -5.83738 -0.0283478
-0.0448964 0.052514 -0.0322066
2.52545 -2.07691 -0.0313123
-0.185367 0.197815 -0.0323657
-0.0918818 0.11887 -0.033514
-0.287002 0.28602 -0.0329428
-0.836126 0.766154 -0.0330552
-1.36875 1.2399 -0.0329868
0.0414627 -0.0333652 -0.0334645
-0.658954 0.608818 -0.0328607
-2.21253 2.05305 -0.0339605
4.59065 -4.37441 -0.0325428
0.897148 -0.829663 -0.0344748
1.07788 -1.0051 -0.0320832
1.51709 -1.44176 -0.0349692
-0.455825 0.548749 -0.0315082
0.0153991 0.0642726 -0.0354223
-0.0477038 0.131267 -0.0308284
-0.0233646 0.104157 -0.0358234
0.0794611 -0.00573819 -0.030045
-0.336145 0.450461 -0.0361703
-0.384846 0.506442 -0.0291514
0.58391 -0.602115 -0.0364677
1.08461 -1.18404 -0.0281345
0.558875 -0.560815 -0.0367252
-10.213 12.4974 -0.0269777
4.81069 -6.08994 -0.0369522
0.593441 -0.761638 -0.0256689
-0.540113 0.699908 -0.0371474
0.489755 -0.657185 -0.0242106
-0.627872 0.848978 -0.0372855
-6.38887 8.79571 -0.0226181
-8.5794 11.888 -0.0372809
10.851 -16.2047 -0.0206994
0 0 0
0 0 0
-0.793505 1.048 -0.0369363
0.789566 -1.05616 -0.00672185
-49.8541 37.6252 0.00435547
49.8544 -37.6262 -0.00609783
28.0471 -21.9167 0.0107997
-28.0463 21.9162 -0.012968
20.9311 -16.4079 0.0134167
-20.9309 16.4065 -0.0186912
-0.00041436 0.012268 0.023414
-0.000411637 -0.0136283 -0.0279659
4.95614 -3.93075 0.0184836
-4.95598 3.92825 -0.0269555
-7.16905 5.83502 0.0227738
7.16925 -5.83794 -0.0298375
0.0459092 -0.0559124 0.0198943
-0.0463433 0.0518202 -0.0310918
-2.52579 2.07309 0.0232666
2.52541 -2.0776 -0.0324539
0.183273 -0.203432 0.0176811
-0.183592 0.197603 -0.0315542
0.0937303 -0.123581 0.0234154
-0.0949248 0.117671 -0.0342585
0.284347 -0.292856 0.0160199
-0.28522 0.285677 -0.0324658
0.83533 -0.772614 0.0210697
-0.836434 0.765655 -0.0332502
1.36597 -1.24769 0.0141742
-1.36706 1.23963 -0.0331528
-0.0426411 0.0261019 0.0194588
0.0412855 -0.0337533 -0.0328304
0.656147 -0.617227 0.0123654
-0.657446 0.608584 -0.0338266
2.21112 -2.06082 0.0179309
-2.21269 2.05273 -0.0324032
-4.59351 4.36558 0.0105635
4.59203 -4.3746 -0.0344398
-0.898748 0.82156 0.0164632
0.896983 -0.82993 -0.0319079
-1.08079 0.996008 0.00879271
1.07915 -1.00527 -0.0350055
-1.51886 1.43346 0.0150497
1.51691 -1.44199 -0.0313272
0.452878 -0.558005 0.00706407
-0.454672 0.548608 -0.0355217
-0.0173399 -0.0726929 0.0136908
0.0152089 0.0640842 -0.0306562
0.0447264 -0.140605 0.00538311
-0.046664 0.131146 -0.0359819
0.0212661 -0.112634 0.0123877
-0.0235677 0.104001 -0.0298932
-0.0824672 -0.00362545 0.00375453
0.0803911 -0.00584512 -0.0363807
0.333902 -0.458952 0.0111405
-0.336366 0.450335 -0.029035
0.381805 -0.515788 0.00218417
-0.384017 0.506343 -0.0367152
-0.586279 0.593639 0.0099473
0.583663 -0.60221 -0.0280753
-1.0877 1.17475 0.000679758
1.08535 -1.18414 -0.0369865
-0.561346 0.552376 0.00880364
0.558588 -0.560876 -0.0270037
10.2098 -12.5066 -0.000748643
-10.2123 12.4973 -0.0372001
-4.81324 6.08156 0.00770278
4.81035 -6.08996 -0.0258045
-0.596696 0.752536 -0.00208809
0.594054 -0.761762 -0.0373671
0.537516 -0.708214 0.00663464
-0.540514 0.699934 -0.0244542
-0.493123 0.648228 -0.00332166
0.490315 -0.657339 -0.037505
0.625226 -0.857189 0.00558204
-0.628315 0.849064 -0.0229203
6.38536 -8.80448 -0.00443374
-6.38835 8.79552 -0.0376241
8.57662 -11.8961 0.00447034
-8.57976 11.8881 -0.0211291
-10.855 16.1961 -0.00556939
10.8519 -16.2048 -0.0375198
-49.8541 37.6261 0.00482339
49.8545 -37.6254 -0.0062218
28.0472 -21.9162 0.0104207
-28.0464 21.9161 -0.0120045
20.9311 -16.4079 0.0149289
-20.9307 16.4078 -0.0192686
-0.000266373 0.00902029 0.0225693
-0.000356954 -0.0100039 -0.0260385
4.95623 -3.93085 0.0202855
-4.95608 3.92936 -0.0272645
-7.16914 5.83513 0.022841
7.16951 -5.83754 -0.0283204
0.0460935 -0.0566001 0.0211573
-0.0465694 0.0534579 -0.030755
-2.52592 2.07287 0.0236752
2.52569 -2.07704 -0.0312466
0.183461 -0.202786 0.0188145
-0.183816 0.198109 -0.0311611
0.0934784 -0.124925 0.0237141
-0.0946463 0.119074 -0.0332527
0.284658 -0.292343 0.0168308
-0.285428 0.286405 -0.0321894
0.83521 -0.772623 0.0213372
-0.836107 0.765656 -0.0325905
1.36622 -1.24714 0.0146585
-1.3672 1.24033 -0.0329066
-0.0427229 0.0261477 0.0196892
0.0415847 -0.0338637 -0.0324506
0.656372 -0.616725 0.0126593
-0.657556 0.609309 -0.033631
2.21104 -2.06079 0.0181085
-2.21243 2.05256 -0.0321818
-4.59331 4.36606 0.0107418
4.59192 -4.37387 -0.0342988
-0.898841 0.821569 0.0165863
0.897205 -0.830144 -0.0317776
-1.08061 0.996472 0.00890126
1.07904 -1.00453 -0.0349135
-1.51897 1.43345 0.0151252
1.51711 -1.44225 -0.0312505
0.453052 -0.557562 0.00713006
-0.454798 0.549349 -0.0354698
-0.0174623 -0.0727268 0.0137282
0.0153973 0.0637859 -0.0306125
0.0448958 -0.140187 0.00542135
-0.0468078 0.131889 -0.0359602
0.0211287 -0.112683 0.0123982
-0.0233808 0.103659 -0.0298725
-0.0822972 -0.0032374 0.00377078
0.0802279 -0.0050977 -0.036378
0.33375 -0.459012 0.0111361
-0.336173 0.449946 -0.0290356
0.38198 -0.515437 0.00217677
-0.384202 0.507098 -0.0367193
-0.586446 0.593574 0.00994177
0.583869 -0.602653 -0.0281023
-1.08751 1.17505 0.000640432
1.08514 -1.18337 -0.036983
-0.561526 0.552315 0.00881292
0.558812 -0.561384 -0.0270687
10.21 -12.5063 -0.000834451
-10.2126 12.4981 -0.0371721
-4.81343 6.08151 0.00774517
4.81059 -6.09055 -0.025925
-0.596492 0.752723 -0.00224077
0.593802 -0.760921 -0.0372956
0.537313 -0.708238 0.00673014
-0.540245 0.699243 -0.0246536
-0.492907 0.648333 -0.00356651
0.490041 -0.656433 -0.0373695
0.625013 -0.857169 0.00575021
-0.628023 0.848246 -0.0232271
6.38559 -8.80447 -0.00479905
-6.38864 8.7965 -0.0374053
8.5764 -11.8959 0.00472878
-8.57945 11.8871 -0.0215733
-10.8548 16.1961 -0.00609672
10.8516 -16.2039 -0.0372081
49.8549 -37.6257 -0.00623425
-28.0463 21.9161 -0.0126868
-20.9306 16.4071 -0.0187147
-0.00167968 -0.0118125 -0.0271796
-4.956 3.92874 -0.0265952
7.16955 -5.83772 -0.0294765
-0.0467999 0.0525926 -0.0299426
2.52575 -2.07731 -0.032723
-0.183723 0.197806 -0.0298431
-0.0948295 0.11836 -0.0351946
-0.285582 0.285986 -0.0302778
-0.835633 0.765616 -0.0350034
-1.36749 1.23991 -0.0302528
0.0421596 -0.0338577 -0.0356053
-0.657959 0.608883 -0.0300572
-2.21178 2.05261 -0.0362355
4.59143 -4.37429 -0.0297004
0.897923 -0.830059 -0.0368448
1.07848 -1.00494 -0.029221
1.51788 -1.44213 -0.0374074
-0.455419 0.548945 -0.0286392
0.0162105 0.0639342 -0.0379063
-0.0474832 0.13149 -0.0279672
-0.0225322 0.103836 -0.0383279
0.0795007 -0.00549433 -0.0272146
-0.335292 0.450151 -0.0386582
-0.384981 0.506701 -0.0263926
0.584781 -0.60242 -0.0388801
1.08431 -1.18377 -0.0255165
0.559762 -0.561117 -0.0389698
-10.2135 12.4977 -0.0246094
4.8116 -6.09024 -0.0388926
0.592815 -0.761357 -0.0237069
-0.539169 0.699601 -0.0385983
0.488945 -0.656902 -0.0228594
-0.626848 0.848667 -0.0380205
-6.38986 8.79599 -0.0221143
-8.57815 11.8876 -0.0370531
10.8504 -16.2044 -0.021293
49.8538 -37.6258 -0.0061325
-49.8542 37.6257 0.0052665
-28.0469 21.9163 -0.0125186
28.0465 -21.9166 0.00911827
-20.9313 16.407 -0.0193792
20.9301 -16.4077 0.0161437
0.00351153 -0.0113394 -0.0266517
-0.00543522 0.0101242 0.0201859
-4.95609 3.92844 -0.0280586
4.95453 -3.93039 0.0222748
7.16891 -5.83734 -0.0284859
-7.16972 5.83474 0.0194499
-0.045833 0.0523898 -0.0321182
0.043724 -0.0558926 0.0236749
2.52594 -2.07691 -0.0312252
-2.52721 2.07279 0.0199308
-0.185334 0.197607 -0.0324545
0.183376 -0.202646 0.0215692
-0.0922306 0.118835 -0.033394
0.0901811 -0.124357 0.019804
-0.287169 0.285831 -0.0329425
0.284885 -0.292133 0.0200927
-0.83538 0.766113 -0.0331558
0.833722 -0.772759 0.0171622
-1.36888 1.23979 -0.0328634
1.3665 -1.24701 0.0183278
0.0422119 -0.0333754 -0.0336693
-0.0440053 0.0259479 0.0153118
-0.659127 0.608751 -0.0326467
0.656615 -0.616605 0.0166679
-2.2118 2.05304 -0.0342335
2.20986 -2.06101 0.0135319
4.59043 -4.37445 -0.0322752
-4.59306 4.36617 0.0150762
0.897874 -0.82967 -0.0347936
-0.899938 0.82134 0.01178
1.07762 -1.00513 -0.0317791
-1.08034 0.996572 0.01357
1.51781 -1.44177 -0.0353205
-1.51999 1.43321 0.0100486
-0.456138 0.548729 -0.0311751
0.453326 -0.557462 0.0121506
0.0161075 0.0642636 -0.0357971
-0.0183941 -0.0729665 0.00834234
-0.0480608 0.131254 -0.030472
0.0451722 -0.140082 0.0108137
-0.0226684 0.104149 -0.0362136
0.0202816 -0.112926 0.00666901
0.0790674 -0.00574748 -0.029673
-0.0820238 -0.00312271 0.00955339
-0.33547 0.450454 -0.0365639
0.332985 -0.459258 0.00503715
-0.385264 0.506434 -0.0287775
0.38225 -0.515307 0.00836304
0.584551 -0.60212 -0.0368459
-0.587136 0.593324 0.00345715
1.08418 -1.18405 -0.0277803
-1.08724 1.1752 0.0072332
0.559462 -0.560816 -0.0370617
-0.562154 0.552056 0.00194329
-10.2134 12.4974 -0.026671
10.2103 -12.5062 0.00614993
4.8112 -6.08993 -0.0372189
-4.81401 6.08124 0.000515007
0.59308 -0.761652 -0.0254323
-0.596179 0.752942 0.00509443
-0.539706 0.699914 -0.037331
0.536754 -0.708528 -0.000803614
0.489465 -0.657203 -0.0240401
-0.492553 0.648601 0.00404414
-0.627588 0.848988 -0.0374132
0.624474 -0.857487 -0.00198853
-6.38904 8.79569 -0.0224596
6.386 -8.80415 0.00296546
-8.57926 11.888 -0.0374279
8.57597 -11.8963 -0.00305691
10.8512 -16.2047 -0.0204792
-10.8541 16.1964 0.00161773
49.8544 -37.6257 -0.00610776
-49.8541 37.6257 0.00529768
-28.0469 21.9161 -0.0125808
28.0474 -21.9165 0.00931849
-20.9306 16.4073 -0.0189858
20.9315 -16.4079 0.0160065
0.000636867 -0.0117675 -0.0271363
0.00133461 0.0105104 0.0208392
-4.95594 3.92885 -0.0270627
4.9567 -3.93068 0.0218966
7.1692 -5.8377 -0.0294934
-7.16891 5.83491 0.0204385
-0.046246 0.0526145 -0.0306079
0.0468488 -0.056115 0.0232321
2.52561 -2.07725 -0.0326479
-2.52565 2.07281 0.0209294
-0.184099 0.197802 -0.0305915
0.183745 -0.202974 0.0212363
-0.094179 0.11839 -0.0351371
0.0941331 -0.124377 0.0206725
-0.285737 0.286012 -0.0308184
0.285035 -0.292512 0.0198295
-0.836141 0.765719 -0.0351462
0.835149 -0.772782 0.0178705
-1.36758 1.23998 -0.0305643
1.3666 -1.24736 0.0181497
0.0415979 -0.0337394 -0.0358114
-0.0428711 0.0259656 0.0158822
-0.65798 0.608961 -0.0302491
0.656779 -0.616919 0.0165517
-2.21235 2.0527 -0.0364773
2.21085 -2.06095 0.0139956
4.59147 -4.37423 -0.0298218
-4.59288 4.36588 0.0149996
0.89736 -0.829991 -0.0371024
-0.899052 0.821435 0.0121707
1.07857 -1.0049 -0.0292941
-1.08018 0.99631 0.0135095
1.51732 -1.44208 -0.0376712
-1.5192 1.43334 0.0103962
-0.455271 0.548975 -0.0286735
0.453481 -0.557708 0.0120872
0.0156569 0.0639673 -0.0381745
-0.0176995 -0.0728159 0.00866904
-0.0472826 0.131506 -0.0279643
0.045317 -0.140318 0.0107351
-0.023085 0.103861 -0.0386047
0.0208844 -0.112756 0.00698829
0.0797573 -0.00549088 -0.0271701
-0.0818874 -0.0033534 0.00945582
-0.335851 0.450173 -0.0389541
0.3335 -0.459072 0.00535209
-0.384661 0.506694 -0.0262947
0.382377 -0.515535 0.00825375
0.584205 -0.602396 -0.039214
-0.586703 0.593523 0.00375663
1.0847 -1.18379 -0.0253428
-1.08713 1.17497 0.00713622
0.55915 -0.56109 -0.0393737
-0.561794 0.552266 0.00219501
-10.213 12.4976 -0.0243203
10.2104 -12.5064 0.00611464
4.81092 -6.09021 -0.0394203
-4.81372 6.08146 0.000655758
0.593439 -0.761389 -0.0232353
-0.596108 0.752699 0.00520645
-0.539952 0.69964 -0.0393371
0.536994 -0.708299 -0.000879464
0.489741 -0.656938 -0.0220996
-0.492505 0.648347 0.00443622
-0.627783 0.848711 -0.0390987
0.624646 -0.85725 -0.00243738
-6.38887 8.79595 -0.0209232
6.38602 -8.80441 0.00382229
-8.57929 11.8877 -0.0386203
8.57594 -11.8961 -0.00408798
10.8514 -16.2044 -0.0195423
-10.8544 16.1961 0.00317643
0.0207739 -0.391542 -0.420609
0.0224448 -0.395582 -0.419493
-79.8602 211.665 131.76
-79.8626 211.664 131.755
-0.0055346 -0.396839 -0.430678
0.00777316 -0.389088 -0.430265
0 0 0
0 0 0
0 0 0
0 0 0
-0.0219123 0.393038 0.418902
0.0215577 -0.393597 -0.419882
-0.0223323 0.395283 0.418982
-165.207 72.9301 -92.3224
-52.8656 -96.8111 -149.722
-6.50479 -34.6923 -41.2418
21.8555 -32.3733 -10.563
163.208 -140.668 22.4952
79.8611 -211.663 -131.759
-79.8616 211.665 131.757
79.8618 -211.663 -131.759
163.211 -140.665 22.4994
21.8531 -32.3733 -10.5668
-6.50223 -34.6908 -41.2391
-52.8679 -96.8094 -149.725
-165.205 72.9318 -92.3211
-0.000297906 0.395186 0.429484
0.00347223 -0.393852 -0.429492
-0.00514322 0.391582 0.428082
163.21 -140.673 22.4945
21.8464 -32.3693 -10.5658
-6.49844 -34.697 -41.2379
-52.882 -96.8078 -149.729
-165.196 72.927 -92.3129
-165.208 72.9319 -92.3127
-52.8724 -96.8116 -149.732
-6.50579 -34.6886 -41.2343
21.8537 -32.3769 -10.5707
163.204 -140.662 22.5003
79.8624 -211.663 -131.756
-79.8616 211.664 131.756
79.8613 -211.663 -131.757
-79.8603 211.663 131.757
79.8599 -211.662 -131.759
-79.8583 211.663 131.758
79.8578 -211.661 -131.76
-79.8556 211.661 131.759
79.8554 -211.66 -131.763
-0.0108727 0.390791 0.423274
0.0127422 -0.390281 -0.423755
-0.0135354 0.390871 0.421885
0.0148822 -0.390443 -0.422289
-0.0160739 0.391236 0.420936
0.0170672 -0.390889 -0.421393
-0.0182627 0.39164 0.420289
0.0190409 -0.391297 -0.420838
-0.0201988 0.391954 0.419888
79.8603 -211.669 -131.77
-79.8599 211.669 131.766
79.8604 -211.668 -131.767
-79.8603 211.668 131.764
79.8605 -211.666 -131.764
-79.8605 211.667 131.762
79.8606 -211.665 -131.762
-79.8604 211.666 131.761
79.8604 -211.664 -131.761
-0.0215923 0.395853 0.419288
0.0200575 -0.395253 -0.419876
-0.019099 0.395528 0.419791
0.0174536 -0.395058 -0.420596
-0.0163234 0.39537 0.420549
0.0141747 -0.395067 -0.421718
-0.0127355 0.395344 0.421659
0.00906648 -0.395435 -0.423529
-0.00750492 0.395207 0.423311
1.74825 -29.7797 -31.5336
2.27772 -12.6165 -14.8994
1.5118 1.14306 -0.371111
0 0 0
0 0 0
0 0 0
1.51133 1.14107 -0.371232
2.27867 -12.6182 -14.8988
1.74685 -29.7863 -31.5342
1.50815 1.14146 -0.369838
2.27315 -12.6144 -14.9025
1.73152 -29.7824 -31.5278
0 0 0
0 0 0
0 0 0
1.73997 -29.7845 -31.5276
2.26782 -12.6204 -14.9021
1.51015 1.14225 -0.370163
0 0 0
0 0 0
0 0 0
0 0 0
0 0 0
0 0 0
0 0 0
0 0 0
0 0 0
0 0 0
0 0 0
0 0 0
0 0 0
0 0 0
0 0 0
0 0 0
0 0 0
0 0 0
165.206 -72.9307 92.3216
-165.206 72.9309 -92.3219
165.206 -72.9301 92.3218
52.8667 96.8105 149.722
-52.867 -96.8102 -149.723
52.8661 96.8117 149.722
6.50329 34.6921 41.2401
-6.50327 -34.6915 -41.2404
6.50383 34.6925 41.2405
-21.8541 32.3743 10.5636
21.854 -32.3733 -10.565
-21.8547 32.3746 10.5632
-163.209 140.667 -22.4979
163.21 -140.667 22.4975
-163.209 140.668 -22.4971
165.206 -72.9314 92.313
-165.205 72.9308 -92.3137
165.202 -72.9305 92.3125
52.8751 96.8113 149.729
-52.8754 -96.8113 -149.731
52.8774 96.8107 149.729
6.50385 34.69 41.2345
-6.50342 -34.6914 -41.2357
6.50169 34.693 41.2351
-21.851 32.3756 10.5663
21.8512 -32.3743 -10.5687
-21.8494 32.3728 10.5654
-163.205 140.665 -22.4996
163.205 -140.667 22.498
-163.207 140.669 -22.4983
165.205 -72.931 92.3202
52.868 96.8101 149.724
6.50284 34.6917 41.2381
-21.8532 32.3742 10.5656
-163.21 140.666 -22.5002
-165.206 72.9317 -92.3211
-52.8684 -96.8093 -149.725
-6.50336 -34.6908 -41.2394
21.8535 -32.3734 -10.5664
163.209 -140.665 22.4986
165.206 -72.931 92.32
52.8686 96.8101 149.724
6.50398 34.6915 41.2383
-21.8535 32.3744 10.5651
-163.208 140.666 -22.4995
-165.207 72.9317 -92.3208
-52.8689 -96.8095 -149.725
-6.50452 -34.6905 -41.2396
21.854 -32.3738 -10.566
163.207 -140.665 22.4978
165.208 -72.9311 92.3196
52.8691 96.8104 149.724
6.50539 34.691 41.2385
-21.8541 32.3749 10.5645
-163.206 140.665 -22.4987
-165.208 72.9319 -92.3203
-52.869 -96.8101 -149.725
-6.50607 -34.69 -41.2398
21.8551 -32.3746 -10.5656
163.205 -140.664 22.4969
165.209 -72.9317 92.3189
52.8692 96.8112 149.724
6.50737 34.6899 41.2387
-21.8554 32.3759 10.5636
-163.203 140.664 -22.4975
-165.21 72.9324 -92.3192
-52.8684 -96.8112 -149.726
-6.50842 -34.689 -41.2398
21.8569 -32.376 -10.5653
163.202 -140.663 22.496
165.212 -72.9332 92.3174
52.8683 96.8127 149.724
6.51005 34.6879 41.239
-21.8574 32.3777 10.5623
-163.199 140.662 -22.4959
165.207 -72.9293 92.3218
52.8662 96.8115 149.722
6.50457 34.6934 41.2412
-21.8551 32.374 10.5622
-163.208 140.669 -22.4957
-165.207 72.9295 -92.3223
-52.8672 -96.8105 -149.722
-6.50473 -34.693 -41.2421
21.8546 -32.3726 -10.5625
163.208 -140.669 22.4943
165.207 -72.9287 92.3215
52.8677 96.8109 149.722
6.5046 34.6941 41.2414
-21.8543 32.3731 10.5615
-163.207 140.67 -22.4948
-165.208 72.929 -92.322
-52.8687 -96.81 -149.722
-6.50483 -34.6938 -41.2424
21.8539 -32.3719 -10.562
163.207 -140.67 22.4932
165.207 -72.9283 92.321
52.8693 96.8102 149.722
6.50468 34.6948 41.2417
-21.8537 32.3722 10.5606
-163.207 140.671 -22.4936
-165.208 72.9284 -92.3214
-52.8704 -96.8094 -149.723
-6.50494 -34.6946 -41.2429
21.8533 -32.3711 -10.5613
163.206 -140.671 22.4918
165.207 -72.9277 92.3202
52.871 96.8093 149.721
6.5046 34.6956 41.2422
-21.853 32.371 10.5593
-163.206 140.672 -22.4919
-165.207 72.9278 -92.3203
-52.8725 -96.8087 -149.723
-6.50478 -34.6957 -41.2433
21.8526 -32.3703 -10.5606
163.205 -140.672 22.4904
165.205 -72.9271 92.3186
52.874 96.8079 149.721
6.50395 34.6966 41.2429
-21.8522 32.3697 10.5575
-163.205 140.673 -22.4899
0.0205759 -0.39239 -0.419775
-0.0208367 0.393945 0.419396
0.0209609 -0.394682 -0.419685
-0.0197038 0.392772 0.419163
0.0195464 -0.393326 -0.420173
-0.0201343 0.394965 0.419275
0.0183811 -0.392075 -0.420251
-0.0187084 0.393657 0.41982
0.0187305 -0.394422 -0.420195
-0.0173982 0.392453 0.419719
0.0173536 -0.39306 -0.420762
-0.0178215 0.394766 0.419855
0.0160011 -0.391761 -0.42094
-0.0163518 0.393447 0.420449
0.0162082 -0.394292 -0.42097
-0.0147817 0.39217 0.420533
0.0147857 -0.392898 -0.42168
-0.0151545 0.394702 0.420757
0.0132531 -0.391654 -0.421936
-0.0135367 0.393358 0.42138
0.0129475 -0.394334 -0.422161
-0.0116387 0.39204 0.421824
0.0116116 -0.393017 -0.423246
-0.011723 0.394805 0.422286
0.0104203 -0.392302 -0.423544
-0.00974738 0.393498 0.422959
0.00760905 -0.394766 -0.424442
-79.8613 211.664 131.758
79.8615 -211.664 -131.758
-79.8609 211.665 131.759
79.8613 -211.663 -131.76
-79.8611 211.665 131.758
79.8609 -211.664 -131.76
-79.8607 211.664 131.759
79.861 -211.664 -131.759
-79.8605 211.665 131.76
79.8606 -211.663 -131.761
-79.8603 211.665 131.759
79.8604 -211.664 -131.762
-79.8597 211.664 131.76
79.8601 -211.664 -131.761
-79.8598 211.665 131.761
79.8594 -211.663 -131.762
-79.859 211.665 131.76
79.8595 -211.665 -131.763
-79.8581 211.663 131.762
79.8586 -211.664 -131.763
-79.8586 211.666 131.763
79.8577 -211.662 -131.764
-79.857 211.664 131.762
79.8582 -211.665 -131.765
-79.8561 211.662 131.765
79.8568 -211.663 -131.766
-79.8573 211.665 131.766
-1.74748 29.7847 31.5339
1.74759 -29.7829 -31.5341
-1.74782 29.7817 31.5337
-2.27879 12.6181 14.8984
2.27825 -12.6174 -14.899
-2.27856 12.6171 14.8984
-1.51154 -1.14162 0.371086
1.51151 1.14205 -0.371225
-1.51169 -1.14239 0.371
-1.73703 29.7839 31.5282
1.73489 -29.7832 -31.5289
-1.73402 29.782 31.5283
-2.27046 12.6185 14.9015
2.27117 -12.6178 -14.902
-2.2716 12.6164 14.9014
-1.5092 -1.14224 0.370065
1.50877 1.1421 -0.37014
-1.50857 -1.14218 0.370029
-1.74569 29.7867 31.5337
-2.27846 12.6183 14.8988
-1.51105 -1.1411 0.371001
1.74393 -29.7866 -31.5338
2.27767 -12.6181 -14.8991
1.51055 1.14105 -0.371034
-1.74275 29.787 31.5332
-2.27731 12.6182 14.8991
-1.51032 -1.14108 0.370805
1.74098 -29.7869 -31.5333
2.27645 -12.618 -14.8995
1.50983 1.14104 -0.370855
-1.73988 29.7872 31.5326
-2.27607 12.6181 14.8995
-1.50969 -1.1411 0.370569
1.73806 -29.787 -31.5328
2.27498 -12.6181 -14.9001
1.50921 1.14109 -0.370643
-1.73756 29.7871 31.5319
-2.27456 12.6182 14.8999
-1.50932 -1.14124 0.370241
1.73578 -29.7865 -31.5322
2.27267 -12.6185 -14.9008
1.50905 1.1413 -0.370527
-1.73838 29.7857 31.5303
-2.27151 12.6188 14.8999
-1.50933 -1.14157 0.370463
-1.74679 29.7802 31.5328
-2.27772 12.6167 14.8989
-1.51142 -1.14275 0.370762
1.74486 -29.7798 -31.5334
2.2771 -12.6163 -14.8995
1.51084 1.14292 -0.371054
-1.74338 29.7804 31.5324
-2.27685 12.6165 14.8991
-1.51051 -1.14259 0.370654
1.74148 -29.78 -31.533
2.27624 -12.616 -14.8998
1.50998 1.1428 -0.370971
-1.73987 29.7805 31.5321
-2.27593 12.6163 14.8994
-1.50963 -1.14246 0.370567
1.73794 -29.78 -31.5327
2.27544 -12.6159 -14.9
1.50913 1.1427 -0.370918
-1.73601 29.7805 31.5318
-2.27511 12.6162 14.8996
-1.50871 -1.1424 0.370578
1.7341 -29.7803 -31.5322
2.27495 -12.6158 -14.9001
1.5082 1.1426 -0.370986
-1.73167 29.7803 31.5313
-2.27483 12.6162 14.8994
-1.5075 -1.1426 0.370899
0 0 0
0 0 0
0 0 0
0 0 0
0 0 0
0 0 0
0 0 0
0 0 0
0 0 0
0 0 0
0 0 0
0 0 0
0 0 0
0 0 0
0 0 0
0 0 0
0 0 0
0 0 0
0 0 0
0 0 0
0 0 0
0 0 0
0 0 0
0 0 0
0 0 0
0 0 0
0 0 0
-165.206 72.9312 -92.3223
165.206 -72.9302 92.3211
-165.207 72.9305 -92.3223
-52.8673 -96.8097 -149.723
52.8672 96.8108 149.723
-52.8669 -96.8107 -149.723
-6.50364 -34.6913 -41.241
6.50355 34.6925 41.2396
-6.50418 -34.6918 -41.2413
21.8541 -32.3732 -10.5645
-21.854 32.3742 10.564
21.8545 -32.3734 -10.5639
163.209 -140.666 22.4967
-163.209 140.668 -22.4982
163.209 -140.667 22.4961
165.206 -72.9305 92.3214
-165.207 72.9306 -92.3219
165.207 -72.9298 92.3216
52.8678 96.8104 149.722
-52.8679 -96.81 -149.723
52.8673 96.8112 149.722
6.5039 34.6921 41.2403
-6.50394 -34.6918 -41.2408
6.50426 34.6929 41.2407
-21.8539 32.3741 10.5631
21.8539 -32.3731 -10.5646
-21.8544 32.3741 10.5627
-163.208 140.667 -22.4972
163.209 -140.667 22.4967
-163.208 140.668 -22.4964
-165.207 72.9311 -92.3221
165.207 -72.9299 92.3209
-165.207 72.9302 -92.322
-52.8683 -96.8096 -149.723
52.8682 96.8106 149.723
-52.868 -96.8104 -149.723
-6.50423 -34.6913 -41.2413
6.50423 34.6927 41.2398
-6.50462 -34.6923 -41.2416
21.854 -32.3733 -10.564
-21.8539 32.374 10.5635
21.8542 -32.3731 -10.5634
163.208 -140.666 22.4958
-163.208 140.668 -22.4974
163.208 -140.668 22.4952
165.207 -72.9304 92.3211
-165.207 72.9305 -92.3216
165.207 -72.9295 92.3212
52.8688 96.8104 149.722
-52.8688 -96.8099 -149.723
52.8684 96.8109 149.722
6.50467 34.692 41.2404
-6.50468 -34.6919 -41.241
6.50482 34.6932 41.2409
-21.8539 32.3742 10.5625
21.854 -32.3731 -10.5642
-21.8541 32.3737 10.562
-163.207 140.667 -22.4964
163.207 -140.667 22.4958
-163.207 140.669 -22.4956
-165.208 72.9311 -92.3217
165.208 -72.9299 92.3204
-165.208 72.9299 -92.3217
-52.8692 -96.8098 -149.723
52.8691 96.8106 149.723
-52.8692 -96.8102 -149.723
-6.50506 -34.6911 -41.2416
6.50513 34.6926 41.24
-6.50526 -34.6926 -41.2419
21.8542 -32.3736 -10.5634
-21.854 32.3739 10.5628
21.8541 -32.3729 -10.5628
163.206 -140.666 22.4947
-163.206 140.668 -22.4965
163.206 -140.668 22.494
165.208 -72.9306 92.3205
-165.208 72.9304 -92.3211
165.208 -72.9293 92.3205
52.8695 96.8107 149.722
-52.8695 -96.8101 -149.724
52.8694 96.8107 149.722
6.5058 34.6915 41.2405
-6.50572 -34.6918 -41.2412
6.50558 34.6933 41.241
-21.8543 32.3746 10.5619
21.8544 -32.3734 -10.5637
-21.8543 32.3735 10.5613
-163.205 140.666 -22.4955
163.205 -140.667 22.4948
-163.205 140.669 -22.4945
-165.208 72.9314 -92.3212
165.208 -72.9301 92.3198
-165.208 72.9297 -92.321
-52.8697 -96.8105 -149.723
52.8698 96.8108 149.722
-52.8702 -96.8102 -149.723
-6.50629 -34.6905 -41.2421
6.50638 34.6921 41.2403
-6.50609 -34.6928 -41.2425
21.8549 -32.3745 -10.5626
-21.8547 32.3742 10.5618
21.8544 -32.3729 -10.5618
163.204 -140.665 22.4932
-163.204 140.667 -22.4952
163.205 -140.668 22.4922
165.209 -72.9312 92.3193
-165.209 72.9307 -92.3201
165.208 -72.9295 92.3192
52.8699 96.8113 149.722
-52.8699 -96.8107 -149.724
52.8704 96.8106 149.722
6.50738 34.6905 41.2403
-6.50724 -34.6914 -41.2414
6.50654 34.693 41.2408
-21.8553 32.3753 10.5613
21.8554 -32.374 -10.5633
-21.8547 32.3733 10.5606
-163.202 140.665 -22.4946
163.203 -140.667 22.4936
-163.203 140.669 -22.4934
-165.209 72.9321 -92.3204
165.209 -72.931 92.3186
-165.208 72.9298 -92.32
-52.8699 -96.8119 -149.724
52.8701 96.8114 149.723
-52.8713 -96.8107 -149.724
-6.50795 -34.6894 -41.2427
6.50802 34.6911 41.2406
-6.50696 -34.6928 -41.2431
21.856 -32.376 -10.5616
-21.8558 32.3748 10.5603
21.8547 -32.3731 -10.5607
163.202 -140.664 22.491
-163.201 140.666 -22.4934
163.203 -140.669 22.4898
1.74565 -29.7846 -31.5342
-1.74626 29.7834 31.5334
1.74602 -29.7815 -31.5341
2.27806 -12.6179 -14.8989
-2.27808 12.6175 14.8987
2.27783 -12.6168 -14.899
1.51099 1.14162 -0.371198
-1.51123 -1.14193 0.37097
1.51112 1.14244 -0.371163
-1.7444 29.785 31.5336
1.74442 -29.7832 -31.5338
-1.74474 29.782 31.5334
-2.27778 12.6179 14.8987
2.27739 -12.6172 -14.8991
-2.27753 12.617 14.8987
-1.51071 -1.14155 0.371018
1.51069 1.14197 -0.371115
-1.51083 -1.14228 0.370938
1.74257 -29.7848 -31.5338
-1.74306 29.7837 31.533
1.74295 -29.7817 -31.5337
2.27705 -12.6177 -14.8992
-2.2771 12.6173 14.8989
2.27684 -12.6166 -14.8993
1.5102 1.14157 -0.371089
-1.51039 -1.14185 0.370863
1.51032 1.14235 -0.371061
-1.74126 29.7852 31.5331
1.74119 -29.7834 -31.5334
-1.74153 29.7822 31.533
-2.27674 12.6178 14.8989
2.2764 -12.617 -14.8994
-2.27648 12.6168 14.8989
-1.50994 -1.14152 0.370893
1.50987 1.14192 -0.371029
-1.51002 -1.14217 0.370838
1.73935 -29.785 -31.5334
-1.73976 29.7838 31.5326
1.73971 -29.7818 -31.5334
2.27592 -12.6177 -14.8995
-2.27609 12.6172 14.8992
2.27582 -12.6164 -14.8996
1.50942 1.14158 -0.370998
-1.5096 -1.14179 0.370772
1.50954 1.14228 -0.370985
-1.73813 29.7852 31.5326
1.7378 -29.7834 -31.5331
-1.73814 29.7823 31.5326
-2.27565 12.6179 14.8992
2.27537 -12.617 -14.8997
-2.27546 12.6167 14.8992
-1.50926 -1.14155 0.370768
1.50907 1.14193 -0.37099
-1.50922 -1.1421 0.370769
1.73613 -29.7849 -31.5331
-1.73643 29.7837 31.5323
1.73633 -29.7818 -31.5331
2.27461 -12.6178 -14.8998
-2.27512 12.6173 14.8993
2.27489 -12.6164 -14.8997
1.50873 1.14166 -0.370992
-1.50883 -1.14185 0.370724
1.50876 1.14228 -0.370976
-1.73555 29.7848 31.5319
1.73443 -29.7832 -31.5328
-1.7345 29.782 31.5322
-2.27444 12.6181 14.8993
2.27445 -12.6173 -14.8998
-2.27459 12.6167 14.8992
-1.50861 -1.14176 0.370712
1.5083 1.14203 -0.371019
-1.50838 -1.1422 0.370785
1.73372 -29.7845 -31.5328
-1.73312 29.7829 31.5321
1.73284 -29.7814 -31.533
2.27315 -12.6184 -14.8998
-2.27413 12.6177 14.8992
2.27416 -12.617 -14.8996
1.50825 1.1419 -0.37105
-1.50801 -1.1422 0.370816
1.50793 1.14242 -0.371153
6.19033e-05 1.37302 1.3691
0.000229774 1.37413 1.36943
0.00389849 1.37413 1.36988
77.9667 53.8023 131.762
77.9671 53.8013 131.761
0.00406938 1.37303 1.36962
0 0 0
0 0 0
0 0 0
0 0 0
-0.00106208 -1.37346 -1.37052
0.000831021 1.37363 1.36953
-0.00106863 -1.37416 -1.3709
-3.62603 1.68357 -1.94889
2.26528 21.3508 23.6093
-2.37707 16.4749 14.0911
2.33521 14.5356 16.8625
4.0442 5.87206 9.90925
4.04553 5.87191 9.91082
2.33371 14.5366 16.8617
-2.37625 16.4744 14.092
2.26449 21.3512 23.6089
-3.62568 1.68278 -1.94828
-0.00322277 -1.37401 -1.37113
0.00385167 1.37376 1.36994
-0.00341087 -1.37331 -1.37084
4.04115 5.87174 9.90705
2.33604 14.5368 16.865
-2.37826 16.4745 14.0899
2.26703 21.3516 23.6106
-3.62562 1.68333 -1.94931
-77.9666 -53.8017 -131.763
77.9668 53.8022 131.762
-77.9663 -53.8024 -131.764
-3.62597 1.6836 -1.94894
2.26733 21.3505 23.6102
-2.37876 16.4757 14.0905
2.33641 14.5357 16.8643
4.04058 5.87372 9.90799
-77.9661 -53.8028 -131.759
77.9658 53.802 131.758
-77.9662 -53.8023 -131.76
77.9659 53.8017 131.759
-77.9663 -53.802 -131.76
77.9662 53.8016 131.759
-77.9665 -53.8017 -131.761
77.9665 53.8015 131.76
-77.9669 -53.8015 -131.761
-0.00356046 -1.37305 -1.37016
0.00343336 1.37312 1.36955
-0.00309125 -1.3731 -1.37015
0.0029265 1.37311 1.36953
-0.00263374 -1.37308 -1.37016
0.00236937 1.37304 1.36948
-0.00205212 -1.37299 -1.37019
0.00163206 1.37296 1.36937
-0.00117189 -1.37282 -1.37026
-77.9665 -53.8023 -131.762
77.9664 53.8022 131.761
-77.9663 -53.8023 -131.762
77.9663 53.802 131.76
-77.9663 -53.8022 -131.761
77.9663 53.8018 131.76
-77.9664 -53.8022 -131.761
77.9667 53.8015 131.759
-77.9667 -53.8022 -131.762
-0.00138394 -1.37467 -1.37078
0.00189109 1.37417 1.36961
-0.00215127 -1.3744 -1.37061
0.00252614 1.37408 1.3697
-0.00262845 -1.37422 -1.3705
0.0029816 1.37402 1.36975
-0.00299637 -1.37412 -1.37045
0.00338834 1.37402 1.36979
-0.0033587 -1.3741 -1.37045
-3.66559 -4.25244 -0.587075
-6.79089 -7.34641 -0.557249
-2.15822 -1.55822 0.599788
0 0 0
0 0 0
0 0 0
-2.15833 -1.55819 0.599673
-6.79069 -7.34627 -0.557163
-3.66583 -4.25187 -0.587462
-2.15807 -1.55814 0.599726
-6.78921 -7.34651 -0.557122
-3.66492 -4.25217 -0.587312
0 0 0
0 0 0
0 0 0
-3.66471 -4.25192 -0.587529
-6.78929 -7.34608 -0.556996
-2.158 -1.55823 0.599656
0 0 0
0 0 0
0 0 0
0 0 0
0 0 0
0 0 0
0 0 0
0 0 0
0 0 0
0 0 0
0 0 0
0 0 0
0 0 0
0 0 0
0 0 0
0 0 0
0 0 0
0 0 0
3.62641 -1.68328 1.94814
-3.62642 1.68308 -1.94899
3.62654 -1.68355 1.94846
-2.26567 -21.3514 -23.6111
2.26545 21.3511 23.6096
-2.2658 -21.3516 -23.6116
2.37727 -16.4752 -14.092
-2.37731 16.4746 14.0909
2.3776 -16.4751 -14.0915
-2.33536 -14.5368 -16.8649
2.33521 14.5362 16.8629
-2.33557 -14.5369 -16.8656
-4.04405 -5.87311 -9.91054
4.04386 5.8721 9.90909
-4.04354 -5.87265 -9.9096
3.62559 -1.68338 1.9489
-3.62565 1.68324 -1.9494
3.62542 -1.6832 1.9492
-2.26663 -21.3509 -23.6119
2.26702 21.3513 23.6107
-2.26636 -21.3516 -23.6123
2.37818 -16.4752 -14.0903
-2.37835 16.4748 14.0898
2.37795 -16.4746 -14.0899
-2.33581 -14.5361 -16.8666
2.33608 14.5366 16.8652
-2.33548 -14.5368 -16.8671
-4.04128 -5.87307 -9.90751
4.04099 5.87237 9.90696
-4.04153 -5.87194 -9.90691
3.62593 -1.68341 1.94795
-2.26524 -21.351 -23.6109
2.37667 -16.4754 -14.0921
-2.33462 -14.5365 -16.8646
-4.04476 -5.87341 -9.91071
-3.62621 1.68308 -1.94868
2.26551 21.3509 23.6095
-2.37724 16.4749 14.0913
2.3349 14.5361 16.8628
4.04375 5.87279 9.90969
3.62607 -1.6833 1.9479
-2.26576 -21.3509 -23.6107
2.37725 -16.4753 -14.0922
-2.33521 -14.5364 -16.8643
-4.04374 -5.87345 -9.91044
-3.6261 1.68319 -1.94878
2.26589 21.3508 23.6097
-2.37755 16.4751 14.0911
2.33519 14.5361 16.8632
4.04305 5.87308 9.90916
3.62601 -1.68329 1.9479
-2.26609 -21.3509 -23.6106
2.37757 -16.4754 -14.0921
-2.33544 -14.5362 -16.8644
-4.04295 -5.87344 -9.91016
-3.62594 1.6833 -1.94881
2.26624 21.3507 23.6098
-2.3778 16.4753 14.091
2.33545 14.536 16.8636
4.04237 5.87327 9.90879
3.62594 -1.68333 1.94793
-2.26642 -21.3507 -23.6107
2.37792 -16.4754 -14.092
-2.33569 -14.5361 -16.8647
-4.04216 -5.87349 -9.90983
-3.62585 1.68342 -1.94884
2.26667 21.3506 23.6099
-2.37815 16.4755 14.0908
2.3358 14.5359 16.8639
4.0416 5.87347 9.90844
3.62597 -1.68342 1.94799
-2.26688 -21.3506 -23.6108
2.3784 -16.4755 -14.0917
-2.33611 -14.5358 -16.8649
-4.04126 -5.87361 -9.90942
3.62635 -1.68356 1.94822
-2.26564 -21.3517 -23.6115
2.37749 -16.475 -14.0916
-2.33525 -14.5369 -16.8657
-4.04342 -5.87239 -9.90963
-3.62642 1.68335 -1.94921
2.26599 21.3512 23.6099
-2.37755 16.4746 14.0905
2.33564 14.5362 16.8635
4.04346 5.87175 9.9083
3.62636 -1.68365 1.94816
-2.26592 -21.3516 -23.6113
2.37769 -16.475 -14.0917
-2.33536 -14.5368 -16.8653
-4.04317 -5.87215 -9.90946
-3.62616 1.68341 -1.94923
2.26617 21.3513 23.6101
-2.37761 16.4746 14.0904
2.33554 14.5364 16.864
4.043 5.87176 9.90804
3.62616 -1.68364 1.94817
-2.26609 -21.3515 -23.6112
2.37778 -16.4749 -14.0916
-2.33542 -14.5367 -16.8653
-4.04271 -5.87206 -9.90926
-3.6259 1.68343 -1.9492
2.26634 21.3514 23.6102
-2.37772 16.4746 14.0903
2.33556 14.5365 16.8643
4.04249 5.87179 9.90779
3.62596 -1.68358 1.94821
-2.26629 -21.3515 -23.6112
2.37793 -16.4748 -14.0914
-2.33551 -14.5367 -16.8655
-4.04216 -5.87198 -9.90897
-3.62568 1.68341 -1.9492
2.2666 21.3515 23.6104
-2.3779 16.4746 14.0901
2.3357 14.5366 16.8646
4.0419 5.87179 9.9075
3.62585 -1.68347 1.9483
-2.26656 -21.3516 -23.6113
2.3782 -16.4747 -14.0912
-2.33571 -14.5367 -16.8657
-4.0415 -5.87187 -9.90856
0.00158561 1.37314 1.37001
-0.00159993 -1.37382 -1.37074
0.00162142 1.37404 1.37027
-0.00207612 -1.37338 -1.37068
0.00198607 1.37367 1.36969
-0.00205568 -1.37423 -1.37104
0.00224099 1.37327 1.36992
-0.00224913 -1.37382 -1.3706
0.00225478 1.37399 1.37017
-0.00248516 -1.37339 -1.37072
0.00253554 1.37371 1.36978
-0.00243301 -1.37414 -1.37104
0.00268972 1.37337 1.36993
-0.00268379 -1.3738 -1.37054
0.00268643 1.37395 1.37017
-0.00281131 -1.3734 -1.37074
0.00297082 1.37373 1.36983
-0.00274196 -1.37406 -1.37103
0.00305707 1.37341 1.36996
-0.00303826 -1.37378 -1.37051
0.00302562 1.37394 1.3702
-0.00308997 -1.37339 -1.37077
0.0033672 1.37375 1.36986
-0.00298336 -1.37401 -1.37104
0.00339552 1.37342 1.37001
-0.00338253 -1.37375 -1.37051
0.00330704 1.37396 1.37026
77.9664 53.8018 131.761
-77.967 -53.8025 -131.762
77.9669 53.8019 131.762
-77.9668 -53.8025 -131.762
77.9665 53.802 131.76
-77.9668 -53.8026 -131.763
77.9662 53.8019 131.761
-77.9665 -53.8025 -131.762
77.9664 53.8021 131.762
-77.9664 -53.8023 -131.762
77.9663 53.8021 131.76
-77.9664 -53.8025 -131.763
77.9661 53.8019 131.761
-77.9664 -53.8024 -131.762
77.9662 53.8022 131.762
-77.9663 -53.8021 -131.762
77.9663 53.8022 131.761
-77.9662 -53.8025 -131.763
77.9661 53.8018 131.761
-77.9664 -53.8023 -131.762
77.9661 53.8023 131.762
-77.9663 -53.8019 -131.763
77.9664 53.8022 131.761
-77.9661 -53.8024 -131.763
77.9663 53.8018 131.762
-77.9666 -53.8023 -131.762
77.9661 53.8023 131.762
3.66612 4.25194 0.587031
-3.66611 -4.25225 -0.587431
3.66603 4.25221 0.586886
6.79025 7.34606 0.556413
-6.79055 -7.34625 -0.557095
6.79032 7.34636 0.55655
2.15835 1.55816 -0.599855
-2.1584 -1.55825 0.599672
2.1583 1.55825 -0.599883
3.66463 4.25208 0.587355
-3.6647 -4.25217 -0.587571
3.66474 4.25222 0.587163
6.7898 7.34609 0.556294
-6.78934 -7.34621 -0.556968
6.78968 7.34644 0.55645
2.158 1.5582 -0.59979
-2.15797 -1.55822 0.599668
2.15805 1.55825 -0.599856
3.66595 4.25185 0.586896
6.79026 7.34591 0.55651
2.15832 1.55809 -0.599939
-3.66602 -4.252 -0.587539
-6.79015 -7.34617 -0.557086
-2.15835 -1.55823 0.599653
3.66588 4.25177 0.5868
6.79007 7.34597 0.556591
2.1583 1.55806 -0.599956
-3.66569 -4.25196 -0.587508
-6.78993 -7.34616 -0.557058
-2.15825 -1.55823 0.59966
3.66561 4.25174 0.586796
6.78992 7.34601 0.556628
2.15824 1.55805 -0.599954
-3.66533 -4.25191 -0.587485
-6.78975 -7.34615 -0.557021
-2.15815 -1.55822 0.59967
3.66531 4.25174 0.586828
6.78979 7.34605 0.556637
2.15818 1.55806 -0.599938
-3.66497 -4.25189 -0.587481
-6.78957 -7.34615 -0.556986
-2.15806 -1.55821 0.599673
3.66505 4.25178 0.586853
6.78966 7.34606 0.556639
2.15812 1.55807 -0.599922
3.66575 4.25218 0.586738
6.79037 7.3466 0.556724
2.15825 1.55826 -0.599943
-3.66592 -4.25234 -0.587222
-6.79025 -7.34644 -0.557152
-2.15832 -1.55821 0.599744
3.66574 4.25233 0.586687
6.7901 7.34653 0.556758
2.15827 1.55832 -0.599962
-3.66567 -4.25233 -0.58727
-6.78999 -7.34643 -0.557113
-2.15825 -1.5582 0.599729
3.66555 4.25239 0.58669
6.78991 7.34651 0.55676
2.15823 1.55833 -0.599967
-3.66538 -4.2523 -0.587291
-6.78977 -7.34643 -0.557087
-2.15817 -1.55819 0.599723
3.66532 4.25239 0.586703
6.78973 7.34652 0.556754
2.15818 1.55833 -0.599965
-3.66509 -4.25226 -0.587297
-6.78954 -7.34645 -0.55708
-2.1581 -1.55818 0.599724
3.66513 4.25236 0.586689
6.78955 7.34655 0.556765
2.15815 1.55832 -0.599976
0 0 0
0 0 0
0 0 0
0 0 0
0 0 0
0 0 0
0 0 0
0 0 0
0 0 0
0 0 0
0 0 0
0 0 0
0 0 0
0 0 0
0 0 0
0 0 0
0 0 0
0 0 0
0 0 0
0 0 0
0 0 0
0 0 0
0 0 0
0 0 0
0 0 0
0 0 0
0 0 0
-3.62671 1.68326 -1.94969
3.62655 -1.68338 1.94845
-3.62671 1.68303 -1.95012
2.26589 21.3508 23.6107
-2.26589 -21.3515 -23.6117
2.26601 21.3514 23.6111
-2.37766 16.475 14.0896
2.37754 -16.4751 -14.0913
-2.37768 16.4743 14.0889
2.33541 14.5359 16.8647
-2.33544 -14.5368 -16.8659
2.33562 14.5365 16.8654
4.04356 5.87262 9.90697
-4.04374 -5.87273 -9.90898
4.04359 5.87153 9.90593
3.62657 -1.68335 1.94845
-3.62657 1.68309 -1.94928
3.62661 -1.6834 1.94875
-2.2661 -21.3512 -23.6115
2.26604 21.3512 23.6101
-2.26606 -21.3517 -23.6121
2.37768 -16.4752 -14.0913
-2.3777 16.4746 14.0903
2.37779 -16.4748 -14.0908
-2.33559 -14.5366 -16.8657
2.33554 14.5364 16.8639
-2.33554 -14.537 -16.8665
-4.04352 -5.87303 -9.90896
4.04326 5.87204 9.90799
-4.04327 -5.87217 -9.90823
-3.62637 1.68323 -1.94952
3.62636 -1.68332 1.94833
-3.62633 1.68314 -1.94993
2.26599 21.3509 23.6106
-2.26602 -21.3514 -23.6114
2.26604 21.3514 23.611
-2.37764 16.4749 14.0898
2.37765 -16.4749 -14.0914
-2.37758 16.4744 14.0892
2.33535 14.5362 16.8647
-2.33549 -14.5368 -16.8656
2.33548 14.5366 16.8652
4.04316 5.87263 9.90733
-4.04324 -5.8725 -9.9091
4.0432 5.87169 9.90652
3.6262 -1.68333 1.94858
-3.62622 1.68313 -1.94931
3.62623 -1.68337 1.94888
-2.26606 -21.3511 -23.6116
2.26613 21.3512 23.6103
-2.266 -21.3516 -23.6121
2.3776 -16.4752 -14.091
-2.3777 16.4746 14.0902
2.37767 -16.4748 -14.0906
-2.33547 -14.5365 -16.8659
2.33549 14.5365 16.8642
-2.33541 -14.5369 -16.8665
-4.0431 -5.87298 -9.90862
4.04287 5.87211 9.90782
-4.04298 -5.87208 -9.90798
-3.626 1.68324 -1.94946
3.62612 -1.68327 1.94832
-3.62595 1.6832 -1.94982
2.26608 21.351 23.6106
-2.26614 -21.3514 -23.6113
2.26611 21.3514 23.611
-2.37764 16.475 14.0899
2.37774 -16.4749 -14.0914
-2.37757 16.4745 14.0894
2.33534 14.5362 16.8647
-2.33551 -14.5368 -16.8655
2.3354 14.5366 16.8653
4.04273 5.87271 9.90736
-4.04272 -5.87241 -9.90903
4.0428 5.8718 9.90667
3.62591 -1.68332 1.94866
-3.62593 1.68316 -1.9493
3.62591 -1.68333 1.94894
-2.26614 -21.3511 -23.6117
2.2663 21.3513 23.6104
-2.26606 -21.3516 -23.6121
2.37767 -16.4751 -14.0908
-2.37779 16.4747 14.0901
2.37767 -16.4747 -14.0904
-2.33545 -14.5364 -16.866
2.33554 14.5366 16.8645
-2.33535 -14.5369 -16.8666
-4.0426 -5.87296 -9.90836
4.04237 5.87219 9.90764
-4.04259 -5.87205 -9.90775
-3.6257 1.68329 -1.94945
3.62592 -1.68324 1.94834
-3.62561 1.68323 -1.94978
2.26626 21.351 23.6107
-2.26634 -21.3514 -23.6113
2.26623 21.3514 23.611
-2.37773 16.4751 14.0898
2.37791 -16.4748 -14.0913
-2.37761 16.4746 14.0893
2.33542 14.5362 16.8649
-2.33561 -14.5367 -16.8656
2.33539 14.5367 16.8654
4.04223 5.87282 9.90721
-4.04214 -5.87238 -9.90881
4.04238 5.87189 9.90656
3.62569 -1.68333 1.94873
-3.62572 1.68319 -1.9493
3.62563 -1.68328 1.94901
-2.26631 -21.351 -23.6118
2.26658 21.3513 23.6105
-2.26617 -21.3516 -23.6121
2.37784 -16.4752 -14.0907
-2.37798 16.4747 14.09
2.37775 -16.4746 -14.0902
-2.33553 -14.5363 -16.8662
2.33571 14.5366 16.8647
-2.33535 -14.5368 -16.8668
-4.04203 -5.873 -9.90804
4.04178 5.87228 9.90739
-4.04213 -5.87201 -9.90744
-3.62547 1.68336 -1.9495
3.62582 -1.68321 1.9484
-3.6253 1.68323 -1.94982
2.26653 21.3509 23.6108
-2.26663 -21.3513 -23.6114
2.2664 21.3515 23.6112
-2.37792 16.4752 14.0897
2.3782 -16.4748 -14.091
-2.3777 16.4746 14.0892
2.33561 14.5362 16.8652
-2.33582 -14.5366 -16.8658
2.33545 14.5367 16.8657
4.04163 5.87297 9.90691
-4.04145 -5.87238 -9.90844
4.04189 5.87193 9.90627
-3.66631 -4.25224 -0.587925
3.66614 4.25212 0.586894
-3.6663 -4.25218 -0.587686
-6.79017 -7.34614 -0.556883
6.79013 7.34618 0.556584
-6.7902 -7.34643 -0.556955
-2.15846 -1.55826 0.59963
2.15837 1.55822 -0.599916
-2.15845 -1.5582 0.599682
3.66612 4.25201 0.587098
-3.66614 -4.25227 -0.587488
3.66611 4.25222 0.586942
6.79002 7.34602 0.556437
-6.79008 -7.34622 -0.557073
6.79001 7.34637 0.556579
2.15838 1.55818 -0.599856
-2.1584 -1.55826 0.59971
2.15838 1.55825 -0.59989
-3.6659 -4.25218 -0.587807
3.66591 4.25216 0.586841
-3.66594 -4.25224 -0.587579
-6.79002 -7.34616 -0.556916
6.79001 7.34618 0.556642
-6.79001 -7.34635 -0.557002
-2.15832 -1.55825 0.599648
2.15832 1.55823 -0.599933
-2.15834 -1.55822 0.599706
3.66575 4.25203 0.587156
-3.66574 -4.25225 -0.58751
3.66576 4.25224 0.587
6.78998 7.34603 0.556417
-6.78992 -7.34621 -0.557028
6.78994 7.34637 0.556556
2.15828 1.55818 -0.599832
-2.15828 -1.55825 0.599703
2.15828 1.55826 -0.599875
-3.66547 -4.25213 -0.58777
3.66561 4.25218 0.586856
-3.66553 -4.25225 -0.587563
-6.78988 -7.34616 -0.556883
6.78989 7.34619 0.55664
-6.78986 -7.34633 -0.556981
-2.15819 -1.55824 0.599641
2.15825 1.55824 -0.599919
-2.15822 -1.55823 0.599702
3.66538 4.25203 0.587216
-3.66536 -4.25223 -0.587522
3.6654 4.25226 0.587057
6.78989 7.34606 0.556396
-6.78975 -7.34621 -0.556982
6.78985 7.34639 0.556527
2.15818 1.55818 -0.599808
-2.15817 -1.55824 0.599693
2.15819 1.55826 -0.599857
-3.66505 -4.25209 -0.587772
3.6653 4.25219 0.586889
-3.66512 -4.25224 -0.58758
-6.78974 -7.34617 -0.556838
6.78977 7.3462 0.556625
-6.78972 -7.34632 -0.556946
-2.15808 -1.55822 0.599633
2.15817 1.55824 -0.599901
-2.1581 -1.55822 0.599694
3.665 4.25204 0.587273
-3.665 -4.2522 -0.587533
3.66505 4.25226 0.587101
6.78982 7.34609 0.556374
-6.78958 -7.34621 -0.556951
6.78976 7.3464 0.556505
2.15809 1.55818 -0.59979
-2.15807 -1.55824 0.599686
2.15811 1.55826 -0.599845
-3.66459 -4.25207 -0.587811
3.66502 4.2522 0.586903
-3.6647 -4.25221 -0.587609
-6.78962 -7.34616 -0.556803
6.78965 7.34622 0.556617
-6.78957 -7.34633 -0.55693
-2.15794 -1.55821 0.599626
2.15811 1.55824 -0.599895
-2.15798 -1.55821 0.599692
-0.00478685 -0.235892 -0.67587
-0.0102493 -0.00541756 -0.94964
-0.00220596 -0.0279181 -0.208785
-0.00614655 -0.0671862 -0.583587
-0.00420623 0.325226 0.109953
0.000114183 0.645439 0.270261
0.00473173 1.06665 0.441314
-0.000622464 1.18617 0.925025
-0.00484437 -0.242601 -0.533467
-0.00490188 -0.241746 -0.452411
-0.0049594 -0.23565 -0.421234
-0.00501692 -0.226631 -0.428611
-0.00507444 -0.217011 -0.463357
-0.00513196 -0.20911 -0.514426
-0.00518948 -0.205248 -0.570914
-0.005247 -0.207745 -0.622057
-0.00530452 -0.218922 -0.657231
-0.00536204 -0.2411 -0.665953
-0.00541956 -0.276598 -0.63788
-0.00547708 -0.327738 -0.562809
0.484779 3.0344 -1.25511
0.744528 2.67798 -1.68751
0.924326 2.32922 -1.98666
1.03265 1.99049 -2.16669
1.07803 1.66415 -2.24181
1.06907 1.35257 -2.22636
1.01443 1.05812 -2.13479
0.922859 0.783166 -1.98165
0.803139 0.530073 -1.7816
0.664134 0.301209 -1.5494
0.514768 0.0989399 -1.29994
0.364032 -0.0743659 -1.04819
0.220979 -0.216342 -0.809248
0.0947291 -0.324623 -0.598308
0.0290779 0.0883975 -0.882147
0.109585 0.208828 -0.746019
0.220989 0.354115 -0.558395
0.352943 0.5225 -0.33652
0.495035 0.712224 -0.0977468
0.636789 0.921527 0.140462
0.767662 1.14865 0.360538
0.877048 1.39184 0.544806
0.954278 1.64932 0.67548
0.988617 1.91936 0.734668
0.969263 2.20017 0.704372
0.885353 2.49002 0.566482
0.725958 2.78713 0.302785
0.480083 3.08975 -0.105044
0.00530248 0.0939222 -0.950315
-0.0029167 0.165557 -0.950988
-0.0203113 0.209486 -0.95166
-0.032286 0.22571 -0.952331
-0.0242451 0.214228 -0.953001
0.0184067 0.175041 -0.95367
0.110265 0.108149 -0.954338
0.717649 2.79268 -0.675492
1.01331 2.23936 -0.675549
1.08078 1.73243 -0.675605
0.977214 1.26819 -0.67566
0.759735 0.842948 -0.675714
0.485485 0.452988 -0.675767
0.211598 0.0946092 -0.675819
-0.205497 0.0953857 -0.618934
-0.181415 0.106553 -0.659456
-0.155481 0.116709 -0.703065
-0.128724 0.1254 -0.748042
-0.102112 0.132173 -0.792777
-0.0765454 0.136574 -0.835769
-0.0528615 0.138149 -0.875622
-0.0318322 0.136444 -0.911049
-0.0141653 0.131006 -0.940872
-0.000503554 0.121382 -0.964018
0.00857475 0.107117 -0.979524
0.012556 0.0877584 -0.986533
0.0109912 0.0628521 -0.984298
0.003496 0.0319447 -0.972178
-0.0153041 -0.0320662 -0.230656
-0.0292591 -0.0341035 -0.253954
-0.0437408 -0.0341352 -0.278129
-0.0584836 -0.0322663 -0.302738
-0.0732866 -0.028602 -0.327446
-0.0880133 -0.0232475 -0.352026
-0.102592 -0.0163078 -0.376359
-0.117016 -0.00788801 -0.400432
-0.131343 0.00190666 -0.424342
-0.145694 0.0129711 -0.448292
-0.160258 0.0252002 -0.472595
-0.175285 0.0384889 -0.497668
-0.191091 0.0527319 -0.52404
-0.208058 0.0678242 -0.552345
-0.0273445 -0.0361759 -0.20902
-0.0546752 -0.0489121 -0.209254
-0.0825988 -0.0661269 -0.209488
-0.109516 -0.0878201 -0.20972
-0.133827 -0.113992 -0.209951
-0.153932 -0.144642 -0.210181
-0.168233 -0.179771 -0.21041
-0.00982907 0.0108916 -0.930565
-0.00940888 0.0153828 -0.9342
-0.0089887 0.00973207 -0.953909
-0.00856851 -0.00438472 -0.983198
-0.00814833 -0.0252918 -1.01571
-0.00772814 -0.0513132 -1.04524
-0.00730796 -0.0807732 -1.06571
-0.00688777 -0.111996 -1.07119
-0.00646759 -0.143305 -1.05588
-0.0060474 -0.173025 -1.01414
-0.00562722 -0.19948 -0.940443
-0.00520703 -0.220994 -0.829431
-0.00646214 -0.0691281 -0.622693
-0.00677773 -0.0714635 -0.668248
-0.00709332 -0.0737808 -0.717646
-0.00740892 -0.0756684 -0.768418
-0.00772451 -0.0767149 -0.818238
-0.0080401 -0.0765087 -0.86492
-0.0083557 -0.0746381 -0.906417
-0.00867129 -0.0706917 -0.940824
-0.00898688 -0.0642579 -0.966376
-0.00930247 -0.0549252 -0.981448
-0.00961807 -0.0422819 -0.984555
-0.00993366 -0.0259166 -0.974354
-0.192828 0.0774266 -0.583361
-0.163791 0.0669606 -0.583397
-0.13803 0.0525755 -0.583431
-0.114052 0.0345841 -0.583464
-0.0903665 0.0132994 -0.583496
-0.0654814 -0.0109658 -0.583528
-0.0379053 -0.0378986 -0.583558
-0.0939205 0.137049 -0.0408432
-0.0898136 0.122422 -0.0487726
-0.0849458 0.106922 -0.0579692
-0.0795909 0.0908788 -0.0679764
-0.0739585 0.0746184 -0.0784451
-0.0681931 0.0584685 -0.0891342
-0.062375 0.0427561 -0.0999103
-0.0565194 0.0278086 -0.110747
-0.0505773 0.0139532 -0.121728
-0.0444348 0.00151723 -0.133041
-0.0379133 -0.00917213 -0.144985
-0.0307698 -0.0177876 -0.157964
-0.0226964 -0.0240019 -0.172492
-0.0133209 -0.0274878 -0.18919
-0.0943545 0.16095 -0.0311204
-0.0925922 0.170204 -0.0288457
-0.0911407 0.17856 -0.0270879
-0.0895646 0.186339 -0.0251215
-0.0874933 0.193861 -0.0223285
-0.0846207 0.201444 -0.0181989
-0.0807054 0.209408 -0.0123303
-0.0755706 0.218074 -0.00442816
-0.0691041 0.227761 0.00569455
-0.0612585 0.238788 0.0181169
-0.0520509 0.251476 0.0328104
-0.0415632 0.266144 0.0496386
-0.0299416 0.283112 0.0683575
-0.0173974 0.302699 0.0886154
-0.00439219 0.0274087 -0.0231645
-0.0043767 0.0451627 -0.0179307
-0.0043612 0.0653261 -0.0139779
-0.0043457 0.0875614 -0.0102864
-0.00433021 0.111531 -0.00597664
-0.00431471 0.136898 -0.000309616
-0.00429921 0.163323 0.00731326
-0.00428372 0.190471 0.0173502
-0.00426822 0.218003 0.0301189
-0.00425272 0.245582 0.0457968
-0.00423723 0.272871 0.0644208
-0.00422173 0.299531 0.0858873
-0.0142872 0.0217937 -0.0312604
-0.025721 0.0454255 -0.0316802
-0.0383629 0.0694623 -0.032099
-0.0656677 0.0905517 -0.0330754
-0.0786606 0.114572 -0.0336331
-0.0895219 0.138943 -0.0341898
-0.00250908 -0.0304486 -0.234023
-0.0028122 -0.0333321 -0.260926
-0.00311532 -0.0364946 -0.288854
-0.00341845 -0.0398621 -0.317303
-0.00372157 -0.0433607 -0.345914
-0.00402469 -0.0469163 -0.374465
-0.00432781 -0.0504549 -0.402875
-0.00463094 -0.0539026 -0.431206
-0.00493406 -0.0571852 -0.459657
-0.00523718 -0.0602289 -0.488569
-0.0055403 -0.0629597 -0.518423
-0.00584342 -0.0653034 -0.549842
-0.00423833 0.000334573 -0.0407921
-0.00406896 -0.00897382 -0.0518612
-0.0038996 -0.0158685 -0.0635613
-0.00373023 -0.0206943 -0.0755468
-0.00356087 -0.0237961 -0.087613
-0.00339151 -0.0255185 -0.0996951
-0.00322214 -0.0262064 -0.111869
-0.00305278 -0.0262046 -0.124351
-0.00288341 -0.0258579 -0.137498
-0.00271405 -0.0255111 -0.151808
-0.00254469 -0.025509 -0.167916
-0.00237532 -0.0261964 -0.186603
-0.00387389 0.350174 0.132683
-0.00354155 0.37482 0.15097
-0.00320921 0.39923 0.165904
-0.00287688 0.423474 0.178434
-0.00254454 0.44762 0.189371
-0.0022122 0.471736 0.199382
-0.00187986 0.495889 0.208997
-0.00154752 0.52015 0.218603
-0.00121518 0.544585 0.228449
-0.000882836 0.569263 0.23864
-0.000550496 0.594253 0.249146
-0.000218156 0.619622 0.259791
-0.0168405 0.345719 0.130976
-0.0285589 0.368232 0.150475
-0.0395625 0.392667 0.168784
-0.0499875 0.418924 0.186129
-0.0599057 0.446904 0.20263
-0.069324 0.476507 0.2183
-0.0781848 0.507634 0.233041
-0.0863658 0.540187 0.246651
-0.0936802 0.574065 0.258817
-0.0998764 0.60917 0.269121
-0.104638 0.645402 0.277035
-0.107585 0.682663 0.281925
-0.10827 0.720852 0.283048
-0.106185 0.759872 0.279554
-0.108068 0.793128 0.270454
-0.104222 0.78235 0.270423
-0.0919502 0.767604 0.270393
-0.0739864 0.749206 0.270365
-0.0530643 0.727474 0.270337
-0.0319177 0.702725 0.270311
-0.0132803 0.675274 0.270286
0.000469379 0.671189 0.276618
0.000824576 0.696544 0.276517
0.00117977 0.721913 0.272379
0.00153497 0.747708 0.266486
0.00189016 0.774338 0.260978
0.00224536 0.802214 0.257856
0.00260056 0.831744 0.258978
0.00295575 0.86334 0.266065
0.00331095 0.897412 0.280696
0.00366614 0.934368 0.304308
0.00402134 0.974621 0.3382
0.00437654 1.01858 0.383529
-0.0334381 0.318804 0.109818
-0.0705973 0.308216 0.109684
-0.113421 0.293463 0.109551
-0.159646 0.274545 0.10942
-0.207011 0.25146 0.109289
-0.253251 0.224211 0.109159
-0.296104 0.192795 0.109031
-0.108194 0.835009 0.257745
-0.115841 0.869843 0.244661
-0.122976 0.903672 0.232433
-0.128945 0.936044 0.222149
-0.133157 0.966507 0.214792
-0.13509 0.994608 0.211237
-0.134282 1.01989 0.21225
-0.130337 1.04192 0.218492
-0.122926 1.06022 0.230513
-0.111782 1.07435 0.248758
-0.0967024 1.08387 0.273561
-0.0775514 1.0883 0.305152
-0.0542564 1.08722 0.34365
-0.0268097 1.08015 0.389069
0.00431987 1.11048 0.490284
0.00390801 1.1424 0.512599
0.00349615 1.16409 0.515346
0.00308429 1.17722 0.50547
0.00267243 1.18346 0.489775
0.00226056 1.18448 0.474927
0.0018487 1.18196 0.467449
0.00143684 1.17757 0.473725
0.00102498 1.17299 0.5
0.000613121 1.16988 0.552374
0.000201259 1.16993 0.636812
-0.000210602 1.1748 0.759135
-0.0500441 1.18436 0.53461
-0.143822 1.32866 0.692911
-0.266589 1.4978 0.899528
-0.408265 1.69002 1.13766
-0.558709 1.90356 1.39041
-0.707712 2.13668 1.64076
-0.845002 2.3876 1.87158
-0.960241 2.65459 2.06566
-1.04303 2.93588 2.20565
-1.0829 3.22971 2.27411
-1.06932 3.53432 2.2535
-0.991698 3.84797 2.12614
-0.839371 4.1689 1.87428
-0.601614 4.49534 1.48004
-0.829968 4.22584 0.925374
-1.10789 3.67467 0.925321
-1.15851 3.16846 0.925269
-1.03893 2.70362 0.925218
-0.806243 2.27656 0.925169
-0.517563 1.88369 0.92512
-0.229989 1.52142 0.925072
-0.000556907 1.20548 1.08075
-0.00049135 1.23204 1.1758
-0.000425793 1.26366 1.22154
-0.000360237 1.29814 1.22922
-0.00029468 1.33327 1.20992
-0.000229123 1.36687 1.17461
-0.000163567 1.39672 1.13409
-9.80099e-05 1.42063 1.09903
-3.24531e-05 1.4364 1.07997
3.31034e-05 1.44184 1.0873
9.86603e-05 1.43474 1.13126
0.000164217 1.4129 1.22198
-0.0426309 1.16597 0.44065
-0.0666529 1.2375 0.439988
-0.0804681 1.28124 0.439326
-0.0972099 1.2972 0.438666
-0.130012 1.28536 0.438007
-0.192009 1.24573 0.437348
-0.296333 1.17832 0.436691
-0.605509 4.4924 0.362139
-0.855507 4.16426 -0.0546949
-1.02599 3.84337 -0.339001
-1.12538 3.53197 -0.504815
-1.16216 3.2323 -0.566283
-1.14488 2.94661 -0.537656
-1.08217 2.67714 -0.433292
-0.982689 2.42612 -0.26766
-0.855196 2.1958 -0.0553335
-0.708497 1.98843 0.189004
-0.551466 1.80623 0.450563
-0.393042 1.65147 0.714444
-0.242228 1.52637 0.965642
-0.108094 1.43317 1.18904
0.00723413 -0.4587 -0.67646
0.00048505 -0.577644 -0.954891
0.00575283 -0.18847 -0.214733
0.00320075 -0.362143 -0.586803
0.00118823 0.16414 0.114133
0.00411236 0.340281 0.27515
0.00733376 0.474644 0.442297
0.000595531 0.948174 0.927594
0.00727559 -0.459035 -0.533809
0.00731706 -0.466691 -0.452548
0.00735852 -0.479414 -0.421207
0.00739999 -0.494949 -0.428455
0.00744145 -0.511038 -0.463103
0.00748291 -0.525428 -0.514101
0.00752438 -0.535862 -0.570541
0.00756584 -0.540085 -0.621655
0.00760731 -0.535841 -0.656815
0.00764877 -0.520875 -0.665533
0.00769023 -0.492932 -0.637461
0.0077317 -0.449755 -0.562394
0.498347 -3.77048 -1.25556
0.758041 -3.4207 -1.68784
0.937791 -3.07831 -1.98688
1.04607 -2.74562 -2.1668
1.09141 -2.42495 -2.24183
1.08242 -2.11863 -2.2263
1.02776 -1.82895 -2.13466
0.936171 -1.55825 -1.98146
0.816437 -1.30883 -1.78135
0.677423 -1.08302 -1.54911
0.528052 -0.88313 -1.29961
0.377316 -0.711474 -1.04783
0.234267 -0.570371 -0.808865
0.108025 -0.462137 -0.597907
0.0398904 -0.681465 -0.887278
0.120521 -0.811874 -0.750956
0.232087 -0.967109 -0.563073
0.364235 -1.14541 -0.340886
0.506546 -1.34502 -0.101759
0.648537 -1.56416 0.136835
0.77966 -1.80109 0.357316
0.889301 -2.05405 0.541998
0.966785 -2.32126 0.673083
1.00137 -2.60096 0.73267
0.982247 -2.89141 0.702748
0.898547 -3.19083 0.565198
0.739334 -3.49746 0.301793
0.493607 -3.80955 -0.105801
0.0161193 -0.678745 -0.955564
0.00796395 -0.752169 -0.956236
-0.00938608 -0.797915 -0.956907
-0.0213359 -0.815983 -0.957578
-0.0132908 -0.806373 -0.958247
0.0293443 -0.769086 -0.958915
0.121164 -0.704121 -0.959582
0.731125 -3.51932 -0.676082
1.02662 -2.96283 -0.676139
1.09392 -2.45219 -0.676195
0.990156 -1.98375 -0.67625
0.772471 -1.55384 -0.676304
0.497999 -1.1588 -0.676357
0.223875 -0.794975 -0.676409
-0.195886 -0.534627 -0.622222
-0.171738 -0.55799 -0.662859
-0.145716 -0.580053 -0.70662
-0.118855 -0.600359 -0.751778
-0.0921269 -0.618454 -0.796714
-0.066437 -0.633883 -0.839918
-0.0426274 -0.64619 -0.879987
-0.0214752 -0.65492 -0.915626
-0.00369284 -0.659618 -0.945647
0.010072 -0.659829 -0.968971
0.0192361 -0.655098 -0.984626
0.0232809 -0.644968 -0.991749
0.0217528 -0.628987 -0.989581
0.0142623 -0.606697 -0.977476
-0.00705766 -0.198546 -0.236122
-0.0207578 -0.210791 -0.258992
-0.0350158 -0.225078 -0.282791
-0.0495644 -0.241285 -0.307073
-0.0642009 -0.259284 -0.331501
-0.0787876 -0.278952 -0.355845
-0.093251 -0.300164 -0.379982
-0.107583 -0.322794 -0.403898
-0.121838 -0.346717 -0.427687
-0.136139 -0.371809 -0.451549
-0.150669 -0.397944 -0.475793
-0.16568 -0.424998 -0.500836
-0.181485 -0.452844 -0.527202
-0.198463 -0.48136 -0.555524
-0.0184584 -0.174574 -0.214961
-0.0442416 -0.157008 -0.215188
-0.0701563 -0.135773 -0.215413
-0.0947618 -0.110868 -0.215638
-0.116617 -0.0822947 -0.215862
-0.134282 -0.0500519 -0.216085
-0.146316 -0.0141398 -0.216306
0.00100421 -0.604256 -0.935677
0.00152337 -0.618697 -0.93909
0.00204253 -0.62266 -0.958508
0.00256169 -0.617839 -0.987449
0.00308085 -0.605929 -1.01957
0.00360001 -0.588624 -1.04867
0.00411917 -0.567617 -1.0687
0.00463833 -0.544602 -1.07372
0.00515749 -0.521273 -1.05796
0.00567665 -0.499325 -1.01579
0.00619581 -0.48045 -0.941694
0.00671497 -0.466344 -0.830324
0.00299185 -0.373681 -0.625982
0.00278295 -0.384486 -0.671673
0.00257405 -0.394986 -0.721255
0.00236515 -0.405612 -0.772248
0.00215625 -0.416792 -0.822311
0.00194735 -0.428954 -0.869244
0.00173845 -0.442529 -0.91099
0.00152955 -0.457944 -0.945628
0.00132065 -0.475629 -0.971382
0.00111175 -0.496012 -0.986612
0.00090285 -0.519523 -0.989821
0.00069395 -0.546591 -0.979653
-0.18323 -0.503842 -0.586576
-0.15421 -0.493256 -0.586612
-0.128495 -0.478957 -0.586646
-0.104579 -0.461242 -0.58668
-0.0809572 -0.440407 -0.586712
-0.0561235 -0.416747 -0.586743
-0.0285726 -0.390561 -0.586773
-0.0900931 0.104105 -0.0403795
-0.0856014 0.0889109 -0.0489165
-0.0802978 0.0721501 -0.0588055
-0.0744726 0.0539947 -0.0695628
-0.0683512 0.0346169 -0.0808125
-0.0620946 0.0141891 -0.0922865
-0.055799 -0.00711625 -0.103824
-0.0494961 -0.0291269 -0.115373
-0.0431526 -0.0516704 -0.126989
-0.0366711 -0.0745744 -0.138833
-0.029889 -0.0976667 -0.151178
-0.0225796 -0.120775 -0.1644
-0.014451 -0.143726 -0.178986
-0.00514722 -0.166349 -0.19553
-0.0905946 0.127725 -0.029738
-0.0886056 0.136146 -0.0270801
-0.0869497 0.142991 -0.0249765
-0.0851904 0.148431 -0.0226993
-0.0829554 0.152636 -0.0196283
-0.0799375 0.155776 -0.0152512
-0.0758937 0.15802 -0.00916335
-0.070646 0.159539 -0.00106776
-0.0640808 0.160503 0.00922472
-0.0561493 0.161081 0.0217955
-0.0468673 0.161444 0.0366183
-0.0363151 0.161761 0.0535591
-0.0246379 0.162203 0.0723761
-0.0120453 0.162939 0.0927198
0.00226642 0.000617776 -0.0217242
0.00217657 0.0149962 -0.0161401
0.00208672 0.0297469 -0.0118571
0.00199687 0.0447173 -0.00785587
0.00190702 0.0597546 -0.00325775
0.00181717 0.0747062 0.00267565
0.00172732 0.0894193 0.0105423
0.00163748 0.103741 0.0207997
0.00154763 0.11752 0.0337651
0.00145778 0.130601 0.049615
0.00136793 0.142834 0.0683857
0.00127808 0.154064 0.0899733
-0.00781778 -0.00425548 -0.0302149
-0.0194513 0.0182866 -0.0306597
-0.0322988 0.0412103 -0.0311036
-0.060392 0.0612087 -0.0321077
-0.073978 0.0838078 -0.0326681
-0.0854581 0.106726 -0.0332274
0.00555651 -0.205678 -0.23942
0.0053602 -0.221844 -0.265848
0.00516389 -0.237077 -0.293367
0.00496757 -0.251487 -0.321473
0.00477126 -0.265184 -0.3498
0.00457495 -0.278275 -0.378122
0.00437863 -0.29087 -0.406355
0.00418232 -0.303079 -0.434553
0.003986 -0.31501 -0.462913
0.00378969 -0.326773 -0.491771
0.00359338 -0.338477 -0.521604
0.00339706 -0.35023 -0.553029
0.00261754 -0.0264774 -0.0402024
0.00287881 -0.0391906 -0.0519307
0.00314009 -0.05153 -0.0644223
0.00340136 -0.0636507 -0.0772858
0.00366264 -0.0757077 -0.0902703
0.00392391 -0.087856 -0.103265
0.00418518 -0.100251 -0.116301
0.00444646 -0.113047 -0.129547
0.00470773 -0.126399 -0.143315
0.00496901 -0.140462 -0.158056
0.00523028 -0.155392 -0.174361
0.00549155 -0.171343 -0.192962
0.00141317 0.174107 0.136956
0.0016381 0.18504 0.155356
0.00186303 0.196837 0.170416
0.00208796 0.209399 0.183078
0.0023129 0.222626 0.194145
0.00253783 0.236415 0.204277
0.00276276 0.250668 0.213997
0.0029877 0.265283 0.223685
0.00321263 0.280161 0.233582
0.00343756 0.2952 0.243787
0.00366249 0.3103 0.254261
0.00388743 0.32536 0.264822
-0.0114911 0.178004 0.135231
-0.0232594 0.189837 0.154812
-0.0343157 0.199753 0.173208
-0.044795 0.207871 0.190643
-0.0547671 0.214305 0.207234
-0.0642376 0.219172 0.22299
-0.0731472 0.222588 0.237812
-0.0813721 0.224668 0.251494
-0.0887236 0.22553 0.263721
-0.0949487 0.225288 0.274073
-0.0997296 0.22406 0.282018
-0.102684 0.221961 0.28692
-0.103364 0.219107 0.288033
-0.101259 0.215615 0.284505
-0.103193 0.215511 0.275344
-0.0994416 0.223504 0.275313
-0.0872723 0.235277 0.275283
-0.0694204 0.250528 0.275255
-0.0486209 0.268956 0.275227
-0.027609 0.290258 0.2752
-0.00911951 0.314134 0.275175
0.00436016 0.355588 0.281294
0.00460796 0.371628 0.280911
0.00485576 0.387977 0.276438
0.00510356 0.404207 0.27017
0.00535136 0.419892 0.264263
0.00559916 0.434607 0.260732
0.00584696 0.447925 0.261451
0.00609476 0.459421 0.268154
0.00634256 0.468667 0.282435
0.00659036 0.475239 0.305747
0.00683816 0.47871 0.339404
0.00708596 0.478653 0.384576
-0.0280889 0.178493 0.114
-0.0652313 0.196365 0.113867
-0.107985 0.217757 0.113736
-0.154097 0.24267 0.113606
-0.201313 0.271102 0.113477
-0.24738 0.303054 0.113348
-0.290044 0.338527 0.113221
-0.103301 0.209556 0.262522
-0.11106 0.20835 0.249253
-0.118343 0.208433 0.236779
-0.124489 0.210259 0.226202
-0.1289 0.214278 0.218516
-0.131046 0.220944 0.214606
-0.13046 0.230709 0.215252
-0.126738 0.244025 0.221125
-0.119543 0.261343 0.232787
-0.108603 0.283117 0.250694
-0.0937067 0.309798 0.275193
-0.0747122 0.34184 0.306525
-0.0515396 0.379693 0.344821
-0.0241743 0.42381 0.390106
0.00681543 0.475097 0.491286
0.00629711 0.487736 0.51368
0.00577878 0.510871 0.516551
0.00526046 0.542815 0.506835
0.00474213 0.581879 0.491326
0.00422381 0.626377 0.476676
0.00370548 0.674619 0.469399
0.00318716 0.724917 0.475867
0.00266883 0.775584 0.502312
0.00215051 0.824931 0.554826
0.00163218 0.871271 0.639361
0.00111386 0.912914 0.761726
-0.0474455 0.396014 0.535595
-0.141243 0.290877 0.693926
-0.264044 0.16099 0.900595
-0.405767 0.00810629 1.1388
-0.556269 -0.166018 1.39164
-0.705339 -0.359628 1.6421
-0.842704 -0.570969 1.87305
-0.958025 -0.798285 2.06726
-1.0409 -1.03982 2.20739
-1.08086 -1.29382 2.27599
-1.06737 -1.55853 2.25552
-0.989835 -1.8322 2.12831
-0.837594 -2.11307 1.87659
-0.599919 -2.39938 1.48248
-0.828257 -2.08979 0.927943
-1.10616 -1.53878 0.92789
-1.15682 -1.03276 0.927838
-1.03732 -0.568143 0.927787
-0.804737 -0.141331 0.927738
-0.516168 0.251264 0.927689
-0.228696 0.613235 0.927641
0.000554483 0.975605 1.08324
0.000513434 0.995891 1.17819
0.000472386 1.01122 1.2238
0.000431338 1.02378 1.23132
0.00039029 1.03576 1.21184
0.000349241 1.04934 1.17632
0.000308193 1.06671 1.13556
0.000267145 1.09006 1.10025
0.000226096 1.12157 1.08092
0.000185048 1.16344 1.08795
0.000144 1.21784 1.13161
0.000102952 1.28698 1.222
-0.0400643 0.37672 0.441635
-0.0642075 0.30647 0.440973
-0.0782112 0.263894 0.440313
-0.0951906 0.248992 0.439653
-0.128261 0.261763 0.438995
-0.190538 0.302208 0.438338
-0.295137 0.370327 0.437681
-0.603842 -2.31605 0.364797
-0.853828 -1.94763 -0.0520129
-1.02433 -1.58637 -0.336353
-1.12378 -1.23451 -0.502255
-1.16064 -0.894305 -0.563857
-1.14348 -0.567992 -0.535406
-1.08089 -0.25782 -0.431256
-0.981563 0.0339661 -0.265867
-0.854235 0.30512 -0.0538106
-0.707713 0.553397 0.190237
-0.550867 0.776551 0.451491
-0.392635 0.972336 0.715058
-0.242015 1.13851 0.965939
-0.108073 1.27282 1.18902
CELL_DATA 2884
SCALARS Stress float 1
LOOKUP_TABLE default
2.7614e+07
1.29028e+08
1.29026e+08
2.75937e+07
7.20561e+07
6.58024e+07
6.57952e+07
7.20573e+07
5.98373e+07
5.80843e+07
5.8088e+07
5.98309e+07
4.84344e+07
4.83907e+07
4.83872e+07
4.84377e+07
3.76485e+07
3.69216e+07
3.6924e+07
3.76455e+07
2.55421e+07
2.5612e+07
2.56102e+07
2.55447e+07
1.35191e+07
1.30598e+07
1.30616e+07
1.3518e+07
472710
369501
369171
476668
-1.2458e+07
-1.35985e+07
-1.35944e+07
-1.24516e+07
-3.47329e+07
-1.93897e+07
-1.93841e+07
-3.47063e+07
-1.34704e+07
-1.91291e+07
-1.91223e+07
-1.34597e+07
-1.21582e+07
-1.19553e+07
-1.19551e+07
-1.21539e+07
-8.36881e+06
-8.42348e+06
-8.42288e+06
-8.36818e+06
-5.24229e+06
-5.39016e+06
-5.39019e+06
-5.24164e+06
-2.78238e+06
-2.8502e+06
-2.84994e+06
-2.78267e+06
-845840
-947106
-947549
-845626
486393
400427
400667
485470
1.23317e+06
1.17396e+06
1.1731e+06
1.23181e+06
1.36112e+06
1.40838e+06
1.40421e+06
1.35741e+06
2.04532e+06
-75283
-73726.8
2.03388e+06
-4.35383e+06
-591295
-589641
-4.34426e+06
-26866.8
-320794
-321089
-24663.1
1.59602e+06
1.48986e+06
1.48994e+06
1.59638e+06
2.73561e+06
2.62319e+06
2.62313e+06
2.73587e+06
3.28554e+06
3.18608e+06
3.1865e+06
3.28528e+06
3.26512e+06
3.15953e+06
3.15874e+06
3.26562e+06
2.67079e+06
2.54622e+06
2.54732e+06
2.67029e+06
1.49727e+06
1.35268e+06
1.35196e+06
1.49831e+06
-238904
-438936
-441232
-235101
-2.88327e+06
-2.49401e+06
-2.48466e+06
-2.86663e+06
-5.8121e+06
-3.02408e+06
-3.01431e+06
-5.79505e+06
-1.75152e+06
-2.07869e+06
-2.08131e+06
-1.74712e+06
90917.3
-87073.8
-87190.4
91602.4
1.39602e+06
1.28131e+06
1.28168e+06
1.39613e+06
2.1572e+06
2.03365e+06
2.03396e+06
2.15723e+06
2.30862e+06
2.23565e+06
2.23493e+06
2.30973e+06
1.92809e+06
1.80817e+06
1.81044e+06
1.92912e+06
903645
864051
864422
910602
-646827
-721780
-715676
-626103
-3.07865e+06
-2.61232e+06
-2.59444e+06
-2.99809e+06
-4.85861e+06
-2.87694e+06
-2.85796e+06
-4.86567e+06
-1.37884e+06
-1.54071e+06
-1.55211e+06
-1.38062e+06
391024
328064
326585
388969
1.65904e+06
1.54209e+06
1.54293e+06
1.65749e+06
2.30358e+06
2.22112e+06
2.22023e+06
2.30353e+06
2.40007e+06
2.28802e+06
2.28775e+06
2.39953e+06
1.90477e+06
1.7871e+06
1.78711e+06
1.90331e+06
844005
692924
691961
840310
-790793
-981530
-995740
-795826
-3.26771e+06
-2.98932e+06
-2.96585e+06
-3.29409e+06
-6.40325e+06
-3.37717e+06
-3.35596e+06
-6.26397e+06
-1.90102e+06
-2.23808e+06
-2.21902e+06
-1.86374e+06
240562
69865.2
72135.8
254074
1.85334e+06
1.73116e+06
1.73418e+06
1.85645e+06
2.90663e+06
2.78953e+06
2.78906e+06
2.90839e+06
3.36664e+06
3.27918e+06
3.27974e+06
3.36655e+06
3.2749e+06
3.16066e+06
3.16036e+06
3.27468e+06
2.57075e+06
2.4948e+06
2.49439e+06
2.56915e+06
1.34479e+06
1.19251e+06
1.18842e+06
1.34186e+06
-1.17324e+06
20525.6
21167.4
-1.18238e+06
-719786
-349046
-348869
-722405
226169
137962
135528
224446
360806
274055
273233
360220
-84662.3
-168976
-168529
-85310.4
-1.09481e+06
-1.2067e+06
-1.20719e+06
-1.09457e+06
-2.72495e+06
-2.78474e+06
-2.78434e+06
-2.72503e+06
-4.86381e+06
-5.01396e+06
-5.01397e+06
-4.8631e+06
-7.6852e+06
-7.72133e+06
-7.72051e+06
-7.6836e+06
-1.11915e+07
-1.09054e+07
-1.09035e+07
-1.11861e+07
-1.13961e+07
-1.85564e+07
-1.855e+07
-1.13798e+07
-3.60945e+07
-1.92746e+07
-1.92688e+07
-3.60702e+07
-1.27742e+07
-1.39978e+07
-1.39938e+07
-1.27671e+07
388834
270852
271192
391487
1.36955e+07
1.32325e+07
1.32334e+07
1.36961e+07
2.59852e+07
2.60515e+07
2.60507e+07
2.59854e+07
3.83589e+07
3.76251e+07
3.76259e+07
3.83582e+07
4.94099e+07
4.93635e+07
4.93618e+07
4.94081e+07
6.10894e+07
5.93137e+07
5.93118e+07
6.10836e+07
7.35997e+07
6.72801e+07
6.72777e+07
7.35763e+07
2.90918e+07
1.31136e+08
1.31106e+08
2.90153e+07
2.94121e+08
1.79209e+08
1.79187e+08
2.94067e+08
2.11304e+08
2.1709e+08
2.17085e+08
2.11294e+08
1.90853e+08
1.91468e+08
1.91478e+08
1.90843e+08
1.67499e+08
1.67601e+08
1.67586e+08
1.67506e+08
1.4329e+08
1.43416e+08
1.43435e+08
1.4328e+08
1.18624e+08
1.18547e+08
1.18521e+08
1.18637e+08
9.32324e+07
9.32165e+07
9.32514e+07
9.32178e+07
6.73474e+07
6.72563e+07
6.72178e+07
6.73658e+07
4.07856e+07
4.07744e+07
4.07945e+07
4.07818e+07
1.37096e+07
1.36294e+07
1.38002e+07
1.36263e+07
2.90776e+08
1.7673e+08
1.76753e+08
2.90828e+08
2.08721e+08
2.14509e+08
2.14503e+08
2.08754e+08
1.88587e+08
1.89189e+08
1.89214e+08
1.88575e+08
1.65515e+08
1.65651e+08
1.65619e+08
1.6554e+08
1.41646e+08
1.41729e+08
1.41775e+08
1.41614e+08
1.17235e+08
1.17222e+08
1.17156e+08
1.1727e+08
9.2216e+07
9.21188e+07
9.21961e+07
9.21519e+07
6.65575e+07
6.65695e+07
6.64639e+07
6.65711e+07
4.04004e+07
4.03493e+07
4.02904e+07
4.02811e+07
1.3725e+07
1.3385e+07
1.35755e+07
1.34749e+07
2.38804e+10
2.6625e+10
2.66248e+10
2.38806e+10
2.38806e+10
2.6625e+10
3.60545e+06
3.67323e+06
3.70705e+06
3.76788e+06
3.49741e+06
3.51461e+06
3.62762e+06
3.40017e+06
3.59317e+06
3.46755e+06
3.17415e+06
3.29929e+06
3.77348e+06
3.5179e+06
3.10379e+06
3.52452e+06
3.48995e+06
3.45127e+06
3.44058e+06
3.78442e+06
3.43895e+06
3.39966e+06
2.98526e+06
3.35639e+06
2.69757e+06
3.10166e+06
3.154e+06
3.27612e+06
3.20651e+06
3.3797e+06
3.16813e+06
3.05818e+06
2.88095e+06
3.14419e+06
3.09499e+06
3.15192e+06
2.62393e+06
3.01469e+06
2.89896e+06
2.89108e+06
2.86877e+06
3.08943e+06
2.90266e+06
2.73258e+06
2.8137e+06
2.89514e+06
2.90665e+06
2.8458e+06
2.49212e+06
2.63972e+06
2.77835e+06
2.61284e+06
2.78161e+06
2.73292e+06
2.54989e+06
2.50473e+06
2.73096e+06
2.58199e+06
2.68648e+06
2.54647e+06
2.76147e+06
2.59765e+06
2.54242e+06
2.46225e+06
2.59556e+06
2.49363e+06
2.48066e+06
2.43905e+06
2.61416e+06
2.5091e+06
2.47845e+06
2.36876e+06
2.5057e+06
2.4515e+06
2.40488e+06
2.34022e+06
2.47321e+06
2.38881e+06
2.35163e+06
2.29573e+06
2.40211e+06
2.3453e+06
2.31765e+06
2.25082e+06
2.30853e+06
2.27384e+06
2.25026e+06
2.20192e+06
2.31012e+06
2.2628e+06
2.19626e+06
2.15154e+06
2.22322e+06
2.18519e+06
2.15665e+06
2.11253e+06
2.12985e+06
2.10369e+06
2.08995e+06
2.05927e+06
2.14224e+06
2.11401e+06
2.03211e+06
2.00255e+06
2.05065e+06
2.02252e+06
1.99423e+06
1.96493e+06
1.95682e+06
1.93725e+06
1.92542e+06
1.90844e+06
1.97163e+06
1.95326e+06
1.86399e+06
1.84643e+06
1.87867e+06
1.85704e+06
1.82983e+06
1.81177e+06
1.78417e+06
1.77045e+06
1.75772e+06
1.75084e+06
1.79866e+06
1.78529e+06
1.69232e+06
1.68325e+06
1.70497e+06
1.6878e+06
1.66263e+06
1.65385e+06
1.6097e+06
1.60085e+06
1.58664e+06
1.58751e+06
1.62327e+06
1.612e+06
1.51685e+06
1.51386e+06
1.52838e+06
1.51413e+06
1.49139e+06
1.49081e+06
1.43225e+06
1.42725e+06
1.41164e+06
1.41891e+06
1.44516e+06
1.43419e+06
1.33725e+06
1.33892e+06
1.3481e+06
1.33576e+06
1.31497e+06
1.32214e+06
1.25086e+06
1.24894e+06
1.23201e+06
1.24498e+06
1.26394e+06
1.25223e+06
1.15308e+06
1.15867e+06
1.16346e+06
1.15261e+06
1.13238e+06
1.1473e+06
1.0645e+06
1.06532e+06
1.0469e+06
1.06535e+06
1.07914e+06
1.06641e+06
963931
973279
973746
964660
942703
965719
872015
875539
855411
879573
890060
877042
769483
783361
778015
771680
745128
776798
672384
678180
656683
687605
695483
684569
568874
590293
575192
572730
539533
580064
466119
471723
449060
490220
492589
489039
357123
394026
364752
365633
330100
376976
255458
255872
233969
287962
273126
291295
133431
214008
133809
149152
150680
170410
177380
118002
119303
116906
53449.7
55191.5
4.26415e+10
1.26885e+10
1.26889e+10
4.26414e+10
4.26415e+10
1.26884e+10
3.52994e+06
3.73533e+06
3.44535e+06
3.57203e+06
3.1513e+06
3.17901e+06
3.40325e+06
3.40135e+06
3.29183e+06
3.35013e+06
2.87471e+06
2.71219e+06
3.1519e+06
4.10868e+06
3.27084e+06
2.81122e+06
2.95461e+06
3.1483e+06
3.65425e+06
3.11355e+06
3.10573e+06
3.18113e+06
2.86188e+06
2.5642e+06
3.21505e+06
2.71942e+06
3.02662e+06
2.95677e+06
2.97234e+06
2.94605e+06
2.84579e+06
3.19353e+06
3.12222e+06
2.84201e+06
2.85334e+06
2.80022e+06
3.0691e+06
2.66615e+06
2.72024e+06
2.76015e+06
2.94925e+06
2.75924e+06
2.69271e+06
2.75058e+06
2.88856e+06
2.79716e+06
2.78334e+06
2.81395e+06
2.64479e+06
2.62462e+06
2.64148e+06
2.75184e+06
2.84443e+06
2.8427e+06
2.5659e+06
2.72766e+06
2.71567e+06
2.87591e+06
2.68931e+06
2.7391e+06
2.58308e+06
2.63795e+06
2.50402e+06
2.52813e+06
2.66701e+06
2.73074e+06
2.46732e+06
2.54356e+06
2.55562e+06
2.62354e+06
2.48292e+06
2.55917e+06
2.44004e+06
2.48459e+06
2.37794e+06
2.45062e+06
2.48201e+06
2.54745e+06
2.33156e+06
2.38375e+06
2.40299e+06
2.45488e+06
2.32779e+06
2.40724e+06
2.27383e+06
2.31811e+06
2.23372e+06
2.29251e+06
2.33189e+06
2.37835e+06
2.17748e+06
2.21637e+06
2.23685e+06
2.27412e+06
2.18054e+06
2.23934e+06
2.10834e+06
2.14078e+06
2.08456e+06
2.12887e+06
2.17265e+06
2.20442e+06
2.02121e+06
2.04982e+06
2.07015e+06
2.09342e+06
2.02748e+06
2.0675e+06
1.94507e+06
1.96563e+06
1.93021e+06
1.96215e+06
2.00511e+06
2.02687e+06
1.86069e+06
1.88025e+06
1.90126e+06
1.91445e+06
1.87012e+06
1.89506e+06
1.77948e+06
1.79138e+06
1.77042e+06
1.79204e+06
1.83175e+06
1.84736e+06
1.69535e+06
1.7071e+06
1.7287e+06
1.73537e+06
1.70888e+06
1.7217e+06
1.60945e+06
1.6156e+06
1.60549e+06
1.6186e+06
1.65343e+06
1.66577e+06
1.52553e+06
1.53064e+06
1.55181e+06
1.55452e+06
1.54337e+06
1.54616e+06
1.43398e+06
1.43654e+06
1.43566e+06
1.44163e+06
1.47051e+06
1.48153e+06
1.35176e+06
1.3509e+06
1.37013e+06
1.37059e+06
1.37288e+06
1.36705e+06
1.25217e+06
1.25278e+06
1.26092e+06
1.2606e+06
1.28343e+06
1.29413e+06
1.17458e+06
1.16766e+06
1.18335e+06
1.18252e+06
1.19614e+06
1.1829e+06
1.06293e+06
1.06291e+06
1.08091e+06
1.07476e+06
1.09315e+06
1.10326e+06
994503
980716
991404
989380
1.01125e+06
991898
865247
865326
894719
883082
901158
908746
811756
789899
794603
790328
815861
791815
658871
658485
701234
684251
708872
710245
625740
594375
592975
584864
608617
580475
445208
442156
500260
476147
515439
506037
432209
389810
384334
373684
393346
359898
226953
216123
294839
263532
314878
287792
235424
178849
170109
147918
178917
168141
86818.4
165275
121310
155005
55509.7
62798.6
9.14018e+10
5.88249e+10
5.88247e+10
9.14022e+10
9.14019e+10
5.88252e+10
3.37619e+06
3.96738e+06
3.46322e+06
3.92865e+06
3.29591e+06
3.64516e+06
3.3487e+06
3.5943e+06
3.24907e+06
3.56163e+06
3.08112e+06
3.36638e+06
2.8672e+06
3.80774e+06
3.36237e+06
3.50256e+06
3.233e+06
3.77738e+06
3.56176e+06
3.43351e+06
3.1267e+06
3.68384e+06
3.15685e+06
3.16921e+06
3.07396e+06
3.03178e+06
3.14387e+06
3.29961e+06
3.22356e+06
3.45146e+06
2.99255e+06
3.29888e+06
3.14129e+06
2.99001e+06
3.03819e+06
3.10161e+06
3.07951e+06
2.92114e+06
2.90786e+06
3.01688e+06
3.09406e+06
3.02369e+06
2.9491e+06
2.76962e+06
3.04498e+06
2.96879e+06
2.85847e+06
2.78782e+06
2.8521e+06
3.10504e+06
2.776e+06
2.49775e+06
2.86605e+06
2.69683e+06
2.88161e+06
2.51156e+06
2.81758e+06
2.58242e+06
2.67354e+06
2.50781e+06
2.63793e+06
2.42282e+06
2.61317e+06
2.48443e+06
2.69738e+06
2.47524e+06
2.59731e+06
2.44028e+06
2.65842e+06
2.44245e+06
2.5524e+06
2.41002e+06
2.47642e+06
2.31192e+06
2.42393e+06
2.28692e+06
2.54066e+06
2.32961e+06
2.40985e+06
2.29312e+06
2.46474e+06
2.30383e+06
2.38029e+06
2.263e+06
2.31594e+06
2.18749e+06
2.26359e+06
2.15892e+06
2.34951e+06
2.19431e+06
2.23868e+06
2.14802e+06
2.27975e+06
2.16184e+06
2.2064e+06
2.12277e+06
2.14697e+06
2.05472e+06
2.10182e+06
2.02539e+06
2.16706e+06
2.05777e+06
2.06412e+06
1.99592e+06
2.09533e+06
2.01166e+06
2.03787e+06
1.9773e+06
1.97219e+06
1.90804e+06
1.93788e+06
1.88308e+06
1.98852e+06
1.91391e+06
1.88873e+06
1.83904e+06
1.91205e+06
1.8532e+06
1.87045e+06
1.82488e+06
1.79558e+06
1.75119e+06
1.7715e+06
1.73254e+06
1.80981e+06
1.76054e+06
1.71287e+06
1.67713e+06
1.72955e+06
1.68818e+06
1.70231e+06
1.66606e+06
1.61743e+06
1.58663e+06
1.6022e+06
1.57408e+06
1.62916e+06
1.59832e+06
1.53591e+06
1.50965e+06
1.54645e+06
1.51745e+06
1.53242e+06
1.50135e+06
1.43653e+06
1.41523e+06
1.42962e+06
1.40814e+06
1.44577e+06
1.4284e+06
1.35738e+06
1.33652e+06
1.36129e+06
1.34114e+06
1.3596e+06
1.33061e+06
1.25128e+06
1.23692e+06
1.25336e+06
1.23515e+06
1.25947e+06
1.25175e+06
1.17714e+06
1.15791e+06
1.1729e+06
1.15901e+06
1.18211e+06
1.15314e+06
1.05996e+06
1.05104e+06
1.07278e+06
1.05522e+06
1.07088e+06
1.0692e+06
995243
974153
980671
970672
997624
967636
861074
856426
886816
868053
881326
881482
811722
785598
784440
775660
803494
772256
653995
651921
694273
672900
692209
688890
625742
591671
584034
573894
598161
565200
439895
437754
494894
468025
502728
490266
433006
388233
377018
366766
385415
349067
221260
214526
292068
258703
306861
277882
238648
178541
164965
149099
174188
163823
81751.6
175353
124834
158334
52301.3
60394.7
6.58166e+10
8.35769e+10
8.35771e+10
6.58165e+10
6.58164e+10
8.35768e+10
3.57417e+06
3.43927e+06
3.6068e+06
3.33669e+06
3.30748e+06
2.97076e+06
3.88227e+06
3.19319e+06
3.50763e+06
3.06434e+06
3.06093e+06
2.75184e+06
3.54731e+06
2.98586e+06
3.27536e+06
3.04579e+06
3.4394e+06
2.8866e+06
3.09324e+06
3.48042e+06
3.52528e+06
2.93456e+06
2.85393e+06
2.77597e+06
3.35997e+06
2.94483e+06
3.04095e+06
2.97714e+06
3.20136e+06
2.95976e+06
2.92486e+06
3.07107e+06
3.11434e+06
3.0654e+06
2.89106e+06
2.79427e+06
3.14385e+06
3.09466e+06
2.86088e+06
2.83059e+06
2.95165e+06
3.0328e+06
2.59043e+06
2.84418e+06
2.94907e+06
3.0479e+06
2.71935e+06
2.83542e+06
3.10574e+06
3.02319e+06
2.52452e+06
2.81259e+06
2.79395e+06
3.00828e+06
2.68709e+06
2.85804e+06
2.68946e+06
2.94682e+06
2.55986e+06
2.81654e+06
2.33845e+06
2.66547e+06
2.52088e+06
2.68511e+06
2.63217e+06
2.88956e+06
2.46261e+06
2.60013e+06
2.43213e+06
2.67637e+06
2.47045e+06
2.65337e+06
2.32808e+06
2.48753e+06
2.35585e+06
2.49537e+06
2.42755e+06
2.64277e+06
2.29676e+06
2.42524e+06
2.33475e+06
2.48607e+06
2.32028e+06
2.43991e+06
2.21805e+06
2.33023e+06
2.21466e+06
2.32134e+06
2.27892e+06
2.41938e+06
2.15023e+06
2.24878e+06
2.19273e+06
2.29407e+06
2.16996e+06
2.25157e+06
2.07707e+06
2.15838e+06
2.0684e+06
2.14617e+06
2.12796e+06
2.22008e+06
2.0007e+06
2.07165e+06
2.03825e+06
2.10562e+06
2.01512e+06
2.07329e+06
1.9235e+06
1.98075e+06
1.91562e+06
1.97304e+06
1.97026e+06
2.03001e+06
1.84443e+06
1.89488e+06
1.8764e+06
1.91937e+06
1.85495e+06
1.8982e+06
1.76281e+06
1.80192e+06
1.75626e+06
1.80009e+06
1.8058e+06
1.84311e+06
1.68145e+06
1.71765e+06
1.70864e+06
1.73423e+06
1.68913e+06
1.72321e+06
1.59642e+06
1.62255e+06
1.5907e+06
1.62589e+06
1.63548e+06
1.65681e+06
1.51205e+06
1.53872e+06
1.53546e+06
1.54881e+06
1.51751e+06
1.54669e+06
1.4245e+06
1.44179e+06
1.41904e+06
1.44928e+06
1.46003e+06
1.46969e+06
1.3364e+06
1.35705e+06
1.35692e+06
1.36186e+06
1.33967e+06
1.36735e+06
1.24683e+06
1.2585e+06
1.24111e+06
1.26923e+06
1.27979e+06
1.28082e+06
1.15458e+06
1.17188e+06
1.17285e+06
1.17242e+06
1.155e+06
1.18398e+06
1.06287e+06
1.07152e+06
1.0565e+06
1.08476e+06
1.09472e+06
1.08959e+06
966691
982837
982843
979721
962736
995402
871828
879451
864651
894993
904457
895761
772791
790126
786178
782987
762152
800467
672896
680476
664969
699577
707922
699331
572440
594955
581788
580771
553192
598211
466787
472784
455970
499009
502332
499947
360706
397031
369344
370443
340120
389642
256209
256231
238835
293442
279291
298033
137184
216052
136242
150030
157883
177639
181609
122295
122850
121422
56698
56148.6
399982
535927
642097
1.13242e+06
791721
473785
665654
658758
177074
315490
359059
736876
388155
316340
321862
363716
178280
200860
268928
307886
76504.1
112415
43314
133100
1.33493e+06
863445
950184
959652
320050
518895
538878
909267
844402
501111
671480
691546
223938
333891
371886
656040
407538
312303
336085
432993
148089
120401
213140
190915
972473
1.14555e+06
888330
999218
1.12555e+06
738306
900732
855470
445981
473996
570623
822438
752436
524876
618126
671024
447940
319929
423635
531516
245095
257087
163275
480264
1.81345e+06
1.09575e+06
1.23663e+06
1.34472e+06
767920
845764
677381
985134
1.01176e+06
695600
827099
908053
617249
466290
571403
663414
585241
461707
481284
741343
537197
346826
521190
537356
1.84754e+06
1.70517e+06
983992
1.1542e+06
1.25679e+06
884346
1.18347e+06
1.16747e+06
881105
604688
705032
849336
787947
639877
705046
958474
834947
428034
705494
595441
523041
356493
408584
914565
2.27909e+06
1.22472e+06
1.6018e+06
1.85288e+06
1.45833e+06
1.24814e+06
638023
1.41542e+06
769149
831267
845953
1.30147e+06
958171
623122
723428
801841
520277
470958
570979
1.12355e+06
964307
649032
949427
791981
3.17096e+06
2.25265e+06
767123
1.989e+06
1.35843e+06
1.15282e+06
1.6304e+06
1.78759e+06
1.29234e+06
1.01428e+06
744295
1.2532e+06
535909
505944
576172
1.69426e+06
917471
587395
871514
1.1696e+06
898448
381267
707536
1.08668e+06
2.36526e+06
2.07421e+06
2.604e+06
3.24434e+06
2.73313e+06
1.98694e+06
845947
1.69202e+06
1.33905e+06
632844
994064
2.40808e+06
573759
733336
756869
2.11262e+06
496501
501187
707175
1.80787e+06
1.36472e+06
973477
1.44192e+06
1.11029e+06
5.85625e+06
3.39712e+06
3.25152e+06
4.99295e+06
3.74432e+06
905572
1.66499e+06
3.40013e+06
1.13444e+06
1.67467e+06
1.65085e+06
2.98877e+06
1.32582e+06
1.01315e+06
907824
2.15775e+06
565674
746100
964901
1.68447e+06
1.58119e+06
813745
1.15426e+06
1.66443e+06
1.10515e+07
6.2983e+06
6.88672e+06
2.22103e+07
2.7807e+06
4.28929e+06
4.65869e+06
1.00732e+07
2.79493e+06
2.26252e+06
2.33513e+06
4.74327e+06
1.4795e+06
1.84033e+06
1.90278e+06
3.14174e+06
1.77359e+06
1.17175e+06
1.21751e+06
1.40002e+06
2.80141e+06
2.41763e+06
1.96976e+06
3.49757e+06
672421
970461
931572
1.33287e+06
1.30643e+06
925111
844609
839764
828603
1.52379e+06
1.42154e+06
2.20973e+06
3.97405e+09
1.72956e+10
3.97466e+09
1.7299e+10
1.04942e+06
730696
838883
820508
1.09745e+06
1.33365e+06
1.17476e+06
1.73552e+06
1.48559e+06
1.22712e+06
1.33321e+06
1.6558e+06
3.97212e+09
1.12204e+10
9.70819e+09
1.12228e+10
745571
1.05659e+06
1.15649e+06
1.3121e+06
1.27944e+06
1.24314e+06
1.1513e+06
1.25581e+06
934810
1.30471e+06
1.34263e+06
1.50147e+06
3.9729e+09
1.72896e+10
3.97309e+09
1.72927e+10
1.6245e+06
796715
1.27594e+06
1.41761e+06
1.07689e+06
1.19771e+06
1.14144e+06
1.41315e+06
1.68146e+06
1.25664e+06
1.45235e+06
1.6328e+06
3.97084e+09
1.72885e+10
3.97151e+09
1.72916e+10
1.28937e+06
1.61399e+06
1.39571e+06
1.42603e+06
1.48699e+06
1.29642e+06
1.32041e+06
1.33016e+06
1.01122e+06
1.43613e+06
1.35763e+06
1.42378e+06
3.97187e+09
1.7284e+10
3.97158e+09
1.72868e+10
2.6114e+06
1.39671e+06
2.28862e+06
1.87073e+06
907353
1.49304e+06
1.29936e+06
1.32078e+06
2.58137e+06
1.30044e+06
1.65847e+06
1.60464e+06
3.9697e+09
1.72835e+10
3.97018e+09
1.72858e+10
2.49326e+06
3.19177e+06
2.11054e+06
2.10632e+06
3.08888e+06
1.32199e+06
1.78152e+06
1.66213e+06
1.22055e+06
2.19957e+06
1.434e+06
1.49627e+06
3.97136e+09
1.72793e+10
3.97011e+09
1.72815e+10
5.26186e+06
2.771e+06
4.76514e+06
3.33439e+06
1.00486e+06
3.5592e+06
1.43202e+06
1.12606e+06
5.95633e+06
1.9914e+06
1.92167e+06
1.9431e+06
3.96974e+09
1.7279e+10
3.96891e+09
1.72802e+10
8.00031e+06
8.87536e+06
5.39384e+06
2.91259e+06
1.17261e+07
2.96259e+06
2.13519e+06
2.44997e+06
7.13114e+06
2.75285e+06
1.32761e+06
2.60517e+06
3.97097e+09
1.72769e+10
3.96863e+09
1.72776e+10
2.51902e+07
1.42848e+07
8.29093e+06
1.01221e+07
1.17805e+07
9.12745e+06
7.47211e+06
3.85183e+06
8.27606e+06
7.53049e+06
5.41079e+06
6.20481e+06
3.97134e+09
1.7276e+10
3.96932e+09
1.72722e+10
369897
1.23196e+06
1.09806e+06
1.25439e+06
1.77374e+06
1.01404e+06
1.28051e+06
1.37797e+06
607295
1.15275e+06
1.20555e+06
1.06919e+06
2.02915e+06
1.19935e+06
1.18106e+06
1.26456e+06
1.59519e+06
1.3028e+06
1.44086e+06
1.93696e+06
4.89945e+06
1.294e+06
2.68817e+06
4.10306e+06
1.49219e+06
1.12627e+06
1.30008e+06
1.47572e+06
776518
975582
1.0384e+06
1.05415e+06
1.13435e+06
966930
1.08628e+06
1.10873e+06
868690
829824
742987
1.10629e+06
1.15324e+06
360625
1.03021e+06
2.48693e+06
2.09216e+06
829244
1.0439e+06
1.65314e+06
603748
1.16414e+06
1.10177e+06
1.06277e+06
1.11248e+06
861319
1.14517e+06
1.29175e+06
554412
823409
745143
746448
717240
423022
996085
1.4444e+06
998488
407320
446645
705733
1.75852e+06
442330
784401
1.08631e+06
1.13738e+06
914736
1.12138e+06
1.36492e+06
736845
863708
834221
827676
774634
556965
956230
1.18826e+06
684342
462475
419552
390021
957927
202726
605252
896473
923642
294174
295919
702347
848490
1.02044e+06
973035
989990
908348
654625
934569
1.15253e+06
721277
648201
603616
541318
781887
355057
676228
874199
644473
319174
314129
406316
940235
264767
365426
615632
989652
762138
927255
1.20732e+06
876527
790614
782529
785516
761601
474351
695623
886572
666774
465847
459906
411280
684902
235693
405643
556295
435481
194734
118330
322384
968895
960265
953705
978592
783509
570620
721441
888518
756430
623895
628406
580905
612042
334847
461194
598776
442674
295936
319206
242695
465517
132800
167343
336312
806064
665156
710579
947381
870162
751912
796857
769161
580535
419745
486226
625996
549314
434663
455683
381755
395392
218627
251190
343906
155041
149442
122762
122231
945227
874610
948572
918216
578308
498021
505007
628944
634475
547735
602119
532474
378757
295550
294425
396113
276273
246672
275132
186423
172971
65063
66815.7
157084
544242
546130
487620
616880
722835
603494
730971
635246
366138
383445
335998
434153
355081
337595
393151
314962
218314
194717
167954
246539
58346.4
97199.2
96778
61226.8
2.13881e+06
1.29859e+06
1.13971e+06
2.10224e+06
915138
1.39993e+06
1.33151e+06
676463
2.33006e+06
1.64652e+06
1.44758e+06
2.27046e+06
5.62607e+09
2.43915e+10
5.62665e+09
2.43913e+10
1.50805e+06
1.17652e+06
1.08876e+06
1.05675e+06
1.49442e+06
1.55746e+06
1.49337e+06
1.55351e+06
1.51467e+06
1.47281e+06
1.25276e+06
1.30832e+06
5.62701e+09
2.43905e+10
5.62718e+09
2.43906e+10
1.36854e+06
1.42179e+06
1.15224e+06
1.43728e+06
1.35942e+06
1.37156e+06
1.30996e+06
970889
1.47065e+06
1.43486e+06
1.31109e+06
1.42278e+06
5.62649e+09
2.43911e+10
5.62689e+09
2.43912e+10
1.36405e+06
1.13259e+06
1.10831e+06
1.12852e+06
1.28111e+06
1.37544e+06
1.28559e+06
1.16918e+06
1.44846e+06
1.39156e+06
1.23937e+06
1.18154e+06
5.62681e+09
2.43898e+10
5.62701e+09
2.439e+10
1.19617e+06
1.23618e+06
1.0128e+06
1.0946e+06
1.29765e+06
1.28097e+06
1.22745e+06
1.0916e+06
1.3053e+06
1.35155e+06
1.22742e+06
1.16934e+06
5.62641e+09
2.43905e+10
5.6268e+09
2.43905e+10
1.21147e+06
1.09416e+06
1.06777e+06
1.14105e+06
1.23208e+06
1.24365e+06
1.15233e+06
1.04466e+06
1.3155e+06
1.30648e+06
1.21824e+06
1.14911e+06
5.62655e+09
2.43891e+10
5.62678e+09
2.43893e+10
1.07709e+06
1.05905e+06
932879
945482
1.2187e+06
1.23825e+06
1.17829e+06
1.14427e+06
1.25176e+06
1.28472e+06
1.1691e+06
1.10129e+06
5.6263e+09
2.43898e+10
5.62671e+09
2.43899e+10
1.15498e+06
1.14313e+06
1.06779e+06
1.15991e+06
1.15729e+06
1.12042e+06
1.06857e+06
985418
1.24344e+06
1.29513e+06
1.21917e+06
1.19185e+06
5.62631e+09
2.43885e+10
5.62655e+09
2.43887e+10
840355
773668
791149
736858
1.30671e+06
1.3669e+06
1.23494e+06
1.30959e+06
1.22054e+06
1.21898e+06
1.15242e+06
1.08377e+06
5.62624e+09
2.4389e+10
5.62665e+09
2.43891e+10
1.05325e+06
1.09874e+06
966281
1.09836e+06
779389
761139
805232
719493
1.55219e+06
1.63563e+06
1.45964e+06
1.54055e+06
5.62617e+09
2.43879e+10
5.62631e+09
2.43881e+10
1.04685e+06
1.04685e+06
1.04685e+06
1.04685e+06
1.04685e+06
1.04685e+06
1.04685e+06
1.04685e+06
1.04685e+06
1.04685e+06
1.04685e+06
1.04685e+06
1.04685e+06
-4.7134e+06
-4.72369e+06
-4.734e+06
-4.74429e+06
-4.75459e+06
-4.76489e+06
-4.77519e+06
-4.78548e+06
-4.79578e+06
-4.80608e+06
-4.81638e+06
-4.82668e+06
-4.83698e+06
-4.84727e+06
-4.85757e+06
1.80498e+07
1.80601e+07
1.80704e+07
1.80807e+07
1.8091e+07
1.81013e+07
1.81116e+07
1.81218e+07
1.81321e+07
1.81424e+07
1.81527e+07
1.8163e+07
1.81733e+07
1.81836e+07
1.81939e+07
-1.25837e+07
-1.25644e+07
-1.25451e+07
-1.25258e+07
-1.25065e+07
-1.24872e+07
-1.24678e+07
-1.24485e+07
-1.08368e+06
-1.06437e+06
-1.04507e+06
-1.02576e+06
-1.00645e+06
-987139
-967830
-948521
3.58013e+06
3.56984e+06
3.55954e+06
3.54924e+06
3.53894e+06
3.52864e+06
3.51835e+06
3.50805e+06
3.49775e+06
3.48745e+06
3.47715e+06
3.46686e+06
3.45656e+06
3.44626e+06
3.43596e+06
-380023
-369725
-359427
-349129
-338831
-328533
-318235
-307937
-297639
-287341
-277043
-266745
-256447
-246149
-235851
-4.39249e+06
-4.37318e+06
-4.35388e+06
-4.33457e+06
-4.31526e+06
-4.29595e+06
-4.27664e+06
-4.25733e+06
-7.64737e+06
-7.64737e+06
-7.64737e+06
-7.64737e+06
-7.64737e+06
-7.64737e+06
-7.64737e+06
-7.64737e+06
-7.64737e+06
-7.64737e+06
-7.64737e+06
-7.64737e+06
-7.64737e+06
5.74379e+06
5.74379e+06
5.74379e+06
5.74379e+06
5.74379e+06
5.74379e+06
5.74379e+06
5.74379e+06
5.74379e+06
5.74379e+06
5.74379e+06
5.74379e+06
5.74379e+06
-679494
-660185
-640876
-621568
-602259
-582950
-563641
-544333
1.00593e+07
1.0049e+07
1.00387e+07
1.00284e+07
1.00181e+07
1.00078e+07
9.99753e+06
9.98723e+06
9.97693e+06
9.96663e+06
9.95634e+06
9.94604e+06
9.93574e+06
9.92544e+06
9.91514e+06
7.33166e+07
4.82872e+07
3.86987e+07
4.25548e+07
5.78592e+07
8.26156e+07
1.14828e+08
1.52499e+08
1.93634e+08
2.36235e+08
2.78306e+08
3.17852e+08
3.52876e+08
3.8138e+08
4.01371e+08
282039
282039
282039
282039
282039
282039
282039
282039
282039
282039
282039
282039
282039
-7.85555e+06
-7.83624e+06
-7.81693e+06
-7.79762e+06
-1.04295e+07
-1.04102e+07
-1.03909e+07
-1.03716e+07
5.51682e+06
5.51682e+06
5.51682e+06
5.51682e+06
5.51682e+06
5.51682e+06
5.51682e+06
5.51682e+06
5.51682e+06
5.51682e+06
5.51682e+06
5.51682e+06
5.51682e+06
-3.08243e+06
-3.08243e+06
-3.08243e+06
-3.08243e+06
-3.08243e+06
-3.08243e+06
-3.08243e+06
-3.08243e+06
-3.08243e+06
-3.08243e+06
-3.08243e+06
-3.08243e+06
-3.08243e+06
6.04858e+06
6.04858e+06
6.04858e+06
6.04858e+06
6.04858e+06
6.04858e+06
6.04858e+06
6.04858e+06
6.04858e+06
6.04858e+06
6.04858e+06
6.04858e+06
6.04858e+06
-3.89867e+08
-3.61596e+08
-3.3953e+08
-3.21674e+08
-3.0603e+08
-2.90603e+08
-2.73397e+08
-2.52415e+08
-2.2566e+08
-1.91137e+08
-1.46849e+08
-9.07993e+07
-2.09923e+07
6.45685e+07
1.67879e+08
-590017
-570709
-551400
-532091
-512782
-493474
-474165
-454856
6.46457e+06
6.46457e+06
6.46457e+06
6.46457e+06
6.46457e+06
6.46457e+06
6.46457e+06
6.46457e+06
6.46457e+06
6.46457e+06
6.46457e+06
6.46457e+06
6.46457e+06
-2.51584e+06
-2.49654e+06
-2.47723e+06
-2.45792e+06
-2.43861e+06
-2.4193e+06
-2.39999e+06
-2.38068e+06
-2.32921e+08
-2.39292e+08
-2.23465e+08
-1.87439e+08
-1.33211e+08
-6.27748e+07
2.18717e+07
1.18733e+08
2.25811e+08
3.41112e+08
4.62637e+08
5.88393e+08
7.1638e+08
8.44603e+08
9.71069e+08
-7.49587e+06
-7.49587e+06
-7.49587e+06
-7.49587e+06
-7.49587e+06
-7.49587e+06
-7.49587e+06
-7.49587e+06
-7.49587e+06
-7.49587e+06
-7.49587e+06
-7.49587e+06
-7.49587e+06
-1.71017e+09
-2.91465e+09
-3.8099e+09
-4.3939e+09
-4.66465e+09
-4.62017e+09
-4.25846e+09
-3.5775e+09
-2.57534e+09
-1.24994e+09
4.00676e+08
2.37851e+09
4.68555e+09
7.32379e+09
1.02953e+10
-1.00714e+06
-987832
-968524
-949215
-929906
-910597
-891289
-871980
1.19313e+06
1.19313e+06
1.19313e+06
1.19313e+06
1.19313e+06
1.19313e+06
1.19313e+06
1.19313e+06
1.19313e+06
1.19313e+06
1.19313e+06
1.19313e+06
1.19313e+06
-1.23867e+07
-1.23674e+07
-1.2348e+07
-1.23287e+07
-1.23094e+07
-1.22901e+07
-1.22708e+07
-1.22515e+07
-1.04358e+10
-7.7221e+09
-5.26646e+09
-3.0709e+09
-1.13742e+09
5.31985e+08
1.93532e+09
3.07058e+09
3.93579e+09
4.52893e+09
4.848e+09
4.89104e+09
4.65602e+09
4.14094e+09
3.34384e+09
-754648
-754648
-754648
-754648
-754648
-754648
-754648
-754648
-754648
-754648
-754648
-754648
-754648
-4.99923e+06
-5.00953e+06
-5.01983e+06
-5.03012e+06
-5.04042e+06
-5.05072e+06
-5.06102e+06
-5.07131e+06
-5.08161e+06
-5.09191e+06
-5.10221e+06
-5.11251e+06
-5.12281e+06
-5.1331e+06
-5.1434e+06
1.79463e+07
1.79566e+07
1.79669e+07
1.79772e+07
1.79875e+07
1.79978e+07
1.80081e+07
1.80184e+07
1.80287e+07
1.8039e+07
1.80493e+07
1.80596e+07
1.80699e+07
1.80802e+07
1.80905e+07
-1.25675e+07
-1.25482e+07
-1.25289e+07
-1.25096e+07
-1.24903e+07
-1.2471e+07
-1.24517e+07
-1.24324e+07
-1.08604e+06
-1.06673e+06
-1.04742e+06
-1.02812e+06
-1.00881e+06
-989498
-970189
-950880
3.64008e+06
3.62978e+06
3.61948e+06
3.60918e+06
3.59888e+06
3.58859e+06
3.57829e+06
3.56799e+06
3.55769e+06
3.54739e+06
3.5371e+06
3.5268e+06
3.5165e+06
3.5062e+06
3.4959e+06
-352191
-341893
-331595
-321297
-310999
-300701
-290403
-280105
-269807
-259509
-249211
-238913
-228615
-218317
-208019
-4.25455e+06
-4.23524e+06
-4.21593e+06
-4.19662e+06
-4.17731e+06
-4.158e+06
-4.13869e+06
-4.11939e+06
-9.44871e+06
-9.44871e+06
-9.44871e+06
-9.44871e+06
-9.44871e+06
-9.44871e+06
-9.44871e+06
-9.44871e+06
-9.44871e+06
-9.44871e+06
-9.44871e+06
-9.44871e+06
-9.44871e+06
3.80198e+06
3.80198e+06
3.80198e+06
3.80198e+06
3.80198e+06
3.80198e+06
3.80198e+06
3.80198e+06
3.80198e+06
3.80198e+06
3.80198e+06
3.80198e+06
3.80198e+06
-680697
-661389
-642080
-622771
-603462
-584154
-564845
-545536
9.74559e+06
9.73529e+06
9.725e+06
9.7147e+06
9.7044e+06
9.6941e+06
9.6838e+06
9.67351e+06
9.66321e+06
9.65291e+06
9.64261e+06
9.63231e+06
9.62202e+06
9.61172e+06
9.60142e+06
8.11009e+07
5.53376e+07
4.50575e+07
4.82643e+07
6.29617e+07
8.71533e+07
1.18843e+08
1.56034e+08
1.96731e+08
2.38936e+08
2.80654e+08
3.19889e+08
3.54644e+08
3.82922e+08
4.02728e+08
-1.63525e+06
-1.63525e+06
-1.63525e+06
-1.63525e+06
-1.63525e+06
-1.63525e+06
-1.63525e+06
-1.63525e+06
-1.63525e+06
-1.63525e+06
-1.63525e+06
-1.63525e+06
-1.63525e+06
-8.32357e+06
-8.30426e+06
-8.28495e+06
-8.26564e+06
-1.04789e+07
-1.04596e+07
-1.04403e+07
-1.0421e+07
3.57291e+06
3.57291e+06
3.57291e+06
3.57291e+06
3.57291e+06
3.57291e+06
3.57291e+06
3.57291e+06
3.57291e+06
3.57291e+06
3.57291e+06
3.57291e+06
3.57291e+06
-4.75519e+06
-4.75519e+06
-4.75519e+06
-4.75519e+06
-4.75519e+06
-4.75519e+06
-4.75519e+06
-4.75519e+06
-4.75519e+06
-4.75519e+06
-4.75519e+06
-4.75519e+06
-4.75519e+06
4.09378e+06
4.09378e+06
4.09378e+06
4.09378e+06
4.09378e+06
4.09378e+06
4.09378e+06
4.09378e+06
4.09378e+06
4.09378e+06
4.09378e+06
4.09378e+06
4.09378e+06
-3.91255e+08
-3.63126e+08
-3.41154e+08
-3.23341e+08
-3.07691e+08
-2.92209e+08
-2.74897e+08
-2.53761e+08
-2.26802e+08
-1.92025e+08
-1.47434e+08
-9.10313e+07
-2.08221e+07
6.51905e+07
1.69003e+08
-593115
-573806
-554498
-535189
-515880
-496571
-477263
-457954
4.50996e+06
4.50996e+06
4.50996e+06
4.50996e+06
4.50996e+06
4.50996e+06
4.50996e+06
4.50996e+06
4.50996e+06
4.50996e+06
4.50996e+06
4.50996e+06
4.50996e+06
-2.48906e+06
-2.46975e+06
-2.45044e+06
-2.43114e+06
-2.41183e+06
-2.39252e+06
-2.37321e+06
-2.3539e+06
-2.35041e+08
-2.42736e+08
-2.28019e+08
-1.92886e+08
-1.39334e+08
-6.93594e+07
1.50421e+07
1.11874e+08
2.19139e+08
3.34843e+08
4.56987e+08
5.83578e+08
7.12616e+08
8.42106e+08
9.70054e+08
-9.43352e+06
-9.43352e+06
-9.43352e+06
-9.43352e+06
-9.43352e+06
-9.43352e+06
-9.43352e+06
-9.43352e+06
-9.43352e+06
-9.43352e+06
-9.43352e+06
-9.43352e+06
-9.43352e+06
-1.71024e+09
-2.91522e+09
-3.81092e+09
-4.39531e+09
-4.6664e+09
-4.62222e+09
-4.26074e+09
-3.57998e+09
-2.57795e+09
-1.25264e+09
3.97946e+08
2.3758e+09
4.68291e+09
7.32127e+09
1.02929e+10
-1.0089e+06
-989594
-970285
-950977
-931668
-912359
-893050
-873742
-747079
-747079
-747079
-747079
-747079
-747079
-747079
-747079
-747079
-747079
-747079
-747079
-747079
-1.23666e+07
-1.23473e+07
-1.2328e+07
-1.23087e+07
-1.22894e+07
-1.22701e+07
-1.22508e+07
-1.22315e+07
-1.04343e+10
-7.72169e+09
-5.26714e+09
-3.07256e+09
-1.13996e+09
5.28666e+08
1.93132e+09
3.06601e+09
3.93074e+09
4.52351e+09
4.84231e+09
4.88517e+09
4.65008e+09
4.13504e+09
3.33807e+09
1.85811e+08
3.99242e+08
2.59762e+08
1.98985e+08
2.78163e+08
1.86744e+08
3.90084e+08
2.7427e+08
7.21463e+07
2.77381e+08
-1.56678e+08
-1.88869e+08
-3.41688e+08
-4.22317e+08
-3.73661e+08
-1.60192e+08
-1.82483e+08
-3.5874e+08
-3.01322e+08
-3.71082e+08
