# vtk DataFile Version 3.0
STAP++ Results
ASCII
DATASET UNSTRUCTURED_GRID
POINTS 5 float
0 0 0
2.5 0 0
5 0 0
7.5 0 0
10 0 0
CELLS 0 0
CELL_TYPES 0
POINT_DATA 5
VECTORS Displacement float
0 0 0
0 0 -0.00195497
0 0 -0.00725814
0 0 -0.0147934
0 0 -0.0234448
CELL_DATA 0
SCALARS Stress float 1
LOOKUP_TABLE default
0
0
0
0
