# vtk DataFile Version 3.0
STAP++ Results
ASCII
DATASET UNSTRUCTURED_GRID
POINTS 1089 float
0 0 0
1 0 0
2 0 0
3 0 0
4 0 0
5 0 0
6 0 0
7 0 0
8 0 0
9 0 0
10 0 0
11 0 0
12 0 0
13 0 0
14 0 0
15 0 0
16 0 0
17 0 0
18 0 0
19 0 0
20 0 0
21 0 0
22 0 0
23 0 0
24 0 0
25 0 0
26 0 0
27 0 0
28 0 0
29 0 0
30 0 0
31 0 0
32 0 0
0 1 0
1 1 0
2 1 0
3 1 0
4 1 0
5 1 0
6 1 0
7 1 0
8 1 0
9 1 0
10 1 0
11 1 0
12 1 0
13 1 0
14 1 0
15 1 0
16 1 0
17 1 0
18 1 0
19 1 0
20 1 0
21 1 0
22 1 0
23 1 0
24 1 0
25 1 0
26 1 0
27 1 0
28 1 0
29 1 0
30 1 0
31 1 0
32 1 0
0 2 0
1 2 0
2 2 0
3 2 0
4 2 0
5 2 0
6 2 0
7 2 0
8 2 0
9 2 0
10 2 0
11 2 0
12 2 0
13 2 0
14 2 0
15 2 0
16 2 0
17 2 0
18 2 0
19 2 0
20 2 0
21 2 0
22 2 0
23 2 0
24 2 0
25 2 0
26 2 0
27 2 0
28 2 0
29 2 0
30 2 0
31 2 0
32 2 0
0 3 0
1 3 0
2 3 0
3 3 0
4 3 0
5 3 0
6 3 0
7 3 0
8 3 0
9 3 0
10 3 0
11 3 0
12 3 0
13 3 0
14 3 0
15 3 0
16 3 0
17 3 0
18 3 0
19 3 0
20 3 0
21 3 0
22 3 0
23 3 0
24 3 0
25 3 0
26 3 0
27 3 0
28 3 0
29 3 0
30 3 0
31 3 0
32 3 0
0 4 0
1 4 0
2 4 0
3 4 0
4 4 0
5 4 0
6 4 0
7 4 0
8 4 0
9 4 0
10 4 0
11 4 0
12 4 0
13 4 0
14 4 0
15 4 0
16 4 0
17 4 0
18 4 0
19 4 0
20 4 0
21 4 0
22 4 0
23 4 0
24 4 0
25 4 0
26 4 0
27 4 0
28 4 0
29 4 0
30 4 0
31 4 0
32 4 0
0 5 0
1 5 0
2 5 0
3 5 0
4 5 0
5 5 0
6 5 0
7 5 0
8 5 0
9 5 0
10 5 0
11 5 0
12 5 0
13 5 0
14 5 0
15 5 0
16 5 0
17 5 0
18 5 0
19 5 0
20 5 0
21 5 0
22 5 0
23 5 0
24 5 0
25 5 0
26 5 0
27 5 0
28 5 0
29 5 0
30 5 0
31 5 0
32 5 0
0 6 0
1 6 0
2 6 0
3 6 0
4 6 0
5 6 0
6 6 0
7 6 0
8 6 0
9 6 0
10 6 0
11 6 0
12 6 0
13 6 0
14 6 0
15 6 0
16 6 0
17 6 0
18 6 0
19 6 0
20 6 0
21 6 0
22 6 0
23 6 0
24 6 0
25 6 0
26 6 0
27 6 0
28 6 0
29 6 0
30 6 0
31 6 0
32 6 0
0 7 0
1 7 0
2 7 0
3 7 0
4 7 0
5 7 0
6 7 0
7 7 0
8 7 0
9 7 0
10 7 0
11 7 0
12 7 0
13 7 0
14 7 0
15 7 0
16 7 0
17 7 0
18 7 0
19 7 0
20 7 0
21 7 0
22 7 0
23 7 0
24 7 0
25 7 0
26 7 0
27 7 0
28 7 0
29 7 0
30 7 0
31 7 0
32 7 0
0 8 0
1 8 0
2 8 0
3 8 0
4 8 0
5 8 0
6 8 0
7 8 0
8 8 0
9 8 0
10 8 0
11 8 0
12 8 0
13 8 0
14 8 0
15 8 0
16 8 0
17 8 0
18 8 0
19 8 0
20 8 0
21 8 0
22 8 0
23 8 0
24 8 0
25 8 0
26 8 0
27 8 0
28 8 0
29 8 0
30 8 0
31 8 0
32 8 0
0 9 0
1 9 0
2 9 0
3 9 0
4 9 0
5 9 0
6 9 0
7 9 0
8 9 0
9 9 0
10 9 0
11 9 0
12 9 0
13 9 0
14 9 0
15 9 0
16 9 0
17 9 0
18 9 0
19 9 0
20 9 0
21 9 0
22 9 0
23 9 0
24 9 0
25 9 0
26 9 0
27 9 0
28 9 0
29 9 0
30 9 0
31 9 0
32 9 0
0 10 0
1 10 0
2 10 0
3 10 0
4 10 0
5 10 0
6 10 0
7 10 0
8 10 0
9 10 0
10 10 0
11 10 0
12 10 0
13 10 0
14 10 0
15 10 0
16 10 0
17 10 0
18 10 0
19 10 0
20 10 0
21 10 0
22 10 0
23 10 0
24 10 0
25 10 0
26 10 0
27 10 0
28 10 0
29 10 0
30 10 0
31 10 0
32 10 0
0 11 0
1 11 0
2 11 0
3 11 0
4 11 0
5 11 0
6 11 0
7 11 0
8 11 0
9 11 0
10 11 0
11 11 0
12 11 0
13 11 0
14 11 0
15 11 0
16 11 0
17 11 0
18 11 0
19 11 0
20 11 0
21 11 0
22 11 0
23 11 0
24 11 0
25 11 0
26 11 0
27 11 0
28 11 0
29 11 0
30 11 0
31 11 0
32 11 0
0 12 0
1 12 0
2 12 0
3 12 0
4 12 0
5 12 0
6 12 0
7 12 0
8 12 0
9 12 0
10 12 0
11 12 0
12 12 0
13 12 0
14 12 0
15 12 0
16 12 0
17 12 0
18 12 0
19 12 0
20 12 0
21 12 0
22 12 0
23 12 0
24 12 0
25 12 0
26 12 0
27 12 0
28 12 0
29 12 0
30 12 0
31 12 0
32 12 0
0 13 0
1 13 0
2 13 0
3 13 0
4 13 0
5 13 0
6 13 0
7 13 0
8 13 0
9 13 0
10 13 0
11 13 0
12 13 0
13 13 0
14 13 0
15 13 0
16 13 0
17 13 0
18 13 0
19 13 0
20 13 0
21 13 0
22 13 0
23 13 0
24 13 0
25 13 0
26 13 0
27 13 0
28 13 0
29 13 0
30 13 0
31 13 0
32 13 0
0 14 0
1 14 0
2 14 0
3 14 0
4 14 0
5 14 0
6 14 0
7 14 0
8 14 0
9 14 0
10 14 0
11 14 0
12 14 0
13 14 0
14 14 0
15 14 0
16 14 0
17 14 0
18 14 0
19 14 0
20 14 0
21 14 0
22 14 0
23 14 0
24 14 0
25 14 0
26 14 0
27 14 0
28 14 0
29 14 0
30 14 0
31 14 0
32 14 0
0 15 0
1 15 0
2 15 0
3 15 0
4 15 0
5 15 0
6 15 0
7 15 0
8 15 0
9 15 0
10 15 0
11 15 0
12 15 0
13 15 0
14 15 0
15 15 0
16 15 0
17 15 0
18 15 0
19 15 0
20 15 0
21 15 0
22 15 0
23 15 0
24 15 0
25 15 0
26 15 0
27 15 0
28 15 0
29 15 0
30 15 0
31 15 0
32 15 0
0 16 0
1 16 0
2 16 0
3 16 0
4 16 0
5 16 0
6 16 0
7 16 0
8 16 0
9 16 0
10 16 0
11 16 0
12 16 0
13 16 0
14 16 0
15 16 0
16 16 0
17 16 0
18 16 0
19 16 0
20 16 0
21 16 0
22 16 0
23 16 0
24 16 0
25 16 0
26 16 0
27 16 0
28 16 0
29 16 0
30 16 0
31 16 0
32 16 0
0 17 0
1 17 0
2 17 0
3 17 0
4 17 0
5 17 0
6 17 0
7 17 0
8 17 0
9 17 0
10 17 0
11 17 0
12 17 0
13 17 0
14 17 0
15 17 0
16 17 0
17 17 0
18 17 0
19 17 0
20 17 0
21 17 0
22 17 0
23 17 0
24 17 0
25 17 0
26 17 0
27 17 0
28 17 0
29 17 0
30 17 0
31 17 0
32 17 0
0 18 0
1 18 0
2 18 0
3 18 0
4 18 0
5 18 0
6 18 0
7 18 0
8 18 0
9 18 0
10 18 0
11 18 0
12 18 0
13 18 0
14 18 0
15 18 0
16 18 0
17 18 0
18 18 0
19 18 0
20 18 0
21 18 0
22 18 0
23 18 0
24 18 0
25 18 0
26 18 0
27 18 0
28 18 0
29 18 0
30 18 0
31 18 0
32 18 0
0 19 0
1 19 0
2 19 0
3 19 0
4 19 0
5 19 0
6 19 0
7 19 0
8 19 0
9 19 0
10 19 0
11 19 0
12 19 0
13 19 0
14 19 0
15 19 0
16 19 0
17 19 0
18 19 0
19 19 0
20 19 0
21 19 0
22 19 0
23 19 0
24 19 0
25 19 0
26 19 0
27 19 0
28 19 0
29 19 0
30 19 0
31 19 0
32 19 0
0 20 0
1 20 0
2 20 0
3 20 0
4 20 0
5 20 0
6 20 0
7 20 0
8 20 0
9 20 0
10 20 0
11 20 0
12 20 0
13 20 0
14 20 0
15 20 0
16 20 0
17 20 0
18 20 0
19 20 0
20 20 0
21 20 0
22 20 0
23 20 0
24 20 0
25 20 0
26 20 0
27 20 0
28 20 0
29 20 0
30 20 0
31 20 0
32 20 0
0 21 0
1 21 0
2 21 0
3 21 0
4 21 0
5 21 0
6 21 0
7 21 0
8 21 0
9 21 0
10 21 0
11 21 0
12 21 0
13 21 0
14 21 0
15 21 0
16 21 0
17 21 0
18 21 0
19 21 0
20 21 0
21 21 0
22 21 0
23 21 0
24 21 0
25 21 0
26 21 0
27 21 0
28 21 0
29 21 0
30 21 0
31 21 0
32 21 0
0 22 0
1 22 0
2 22 0
3 22 0
4 22 0
5 22 0
6 22 0
7 22 0
8 22 0
9 22 0
10 22 0
11 22 0
12 22 0
13 22 0
14 22 0
15 22 0
16 22 0
17 22 0
18 22 0
19 22 0
20 22 0
21 22 0
22 22 0
23 22 0
24 22 0
25 22 0
26 22 0
27 22 0
28 22 0
29 22 0
30 22 0
31 22 0
32 22 0
0 23 0
1 23 0
2 23 0
3 23 0
4 23 0
5 23 0
6 23 0
7 23 0
8 23 0
9 23 0
10 23 0
11 23 0
12 23 0
13 23 0
14 23 0
15 23 0
16 23 0
17 23 0
18 23 0
19 23 0
20 23 0
21 23 0
22 23 0
23 23 0
24 23 0
25 23 0
26 23 0
27 23 0
28 23 0
29 23 0
30 23 0
31 23 0
32 23 0
0 24 0
1 24 0
2 24 0
3 24 0
4 24 0
5 24 0
6 24 0
7 24 0
8 24 0
9 24 0
10 24 0
11 24 0
12 24 0
13 24 0
14 24 0
15 24 0
16 24 0
17 24 0
18 24 0
19 24 0
20 24 0
21 24 0
22 24 0
23 24 0
24 24 0
25 24 0
26 24 0
27 24 0
28 24 0
29 24 0
30 24 0
31 24 0
32 24 0
0 25 0
1 25 0
2 25 0
3 25 0
4 25 0
5 25 0
6 25 0
7 25 0
8 25 0
9 25 0
10 25 0
11 25 0
12 25 0
13 25 0
14 25 0
15 25 0
16 25 0
17 25 0
18 25 0
19 25 0
20 25 0
21 25 0
22 25 0
23 25 0
24 25 0
25 25 0
26 25 0
27 25 0
28 25 0
29 25 0
30 25 0
31 25 0
32 25 0
0 26 0
1 26 0
2 26 0
3 26 0
4 26 0
5 26 0
6 26 0
7 26 0
8 26 0
9 26 0
10 26 0
11 26 0
12 26 0
13 26 0
14 26 0
15 26 0
16 26 0
17 26 0
18 26 0
19 26 0
20 26 0
21 26 0
22 26 0
23 26 0
24 26 0
25 26 0
26 26 0
27 26 0
28 26 0
29 26 0
30 26 0
31 26 0
32 26 0
0 27 0
1 27 0
2 27 0
3 27 0
4 27 0
5 27 0
6 27 0
7 27 0
8 27 0
9 27 0
10 27 0
11 27 0
12 27 0
13 27 0
14 27 0
15 27 0
16 27 0
17 27 0
18 27 0
19 27 0
20 27 0
21 27 0
22 27 0
23 27 0
24 27 0
25 27 0
26 27 0
27 27 0
28 27 0
29 27 0
30 27 0
31 27 0
32 27 0
0 28 0
1 28 0
2 28 0
3 28 0
4 28 0
5 28 0
6 28 0
7 28 0
8 28 0
9 28 0
10 28 0
11 28 0
12 28 0
13 28 0
14 28 0
15 28 0
16 28 0
17 28 0
18 28 0
19 28 0
20 28 0
21 28 0
22 28 0
23 28 0
24 28 0
25 28 0
26 28 0
27 28 0
28 28 0
29 28 0
30 28 0
31 28 0
32 28 0
0 29 0
1 29 0
2 29 0
3 29 0
4 29 0
5 29 0
6 29 0
7 29 0
8 29 0
9 29 0
10 29 0
11 29 0
12 29 0
13 29 0
14 29 0
15 29 0
16 29 0
17 29 0
18 29 0
19 29 0
20 29 0
21 29 0
22 29 0
23 29 0
24 29 0
25 29 0
26 29 0
27 29 0
28 29 0
29 29 0
30 29 0
31 29 0
32 29 0
0 30 0
1 30 0
2 30 0
3 30 0
4 30 0
5 30 0
6 30 0
7 30 0
8 30 0
9 30 0
10 30 0
11 30 0
12 30 0
13 30 0
14 30 0
15 30 0
16 30 0
17 30 0
18 30 0
19 30 0
20 30 0
21 30 0
22 30 0
23 30 0
24 30 0
25 30 0
26 30 0
27 30 0
28 30 0
29 30 0
30 30 0
31 30 0
32 30 0
0 31 0
1 31 0
2 31 0
3 31 0
4 31 0
5 31 0
6 31 0
7 31 0
8 31 0
9 31 0
10 31 0
11 31 0
12 31 0
13 31 0
14 31 0
15 31 0
16 31 0
17 31 0
18 31 0
19 31 0
20 31 0
21 31 0
22 31 0
23 31 0
24 31 0
25 31 0
26 31 0
27 31 0
28 31 0
29 31 0
30 31 0
31 31 0
32 31 0
0 32 0
1 32 0
2 32 0
3 32 0
4 32 0
5 32 0
6 32 0
7 32 0
8 32 0
9 32 0
10 32 0
11 32 0
12 32 0
13 32 0
14 32 0
15 32 0
16 32 0
17 32 0
18 32 0
19 32 0
20 32 0
21 32 0
22 32 0
23 32 0
24 32 0
25 32 0
26 32 0
27 32 0
28 32 0
29 32 0
30 32 0
31 32 0
32 32 0
CELLS 1024 5120
4 0 1 34 33
4 1 2 35 34
4 2 3 36 35
4 3 4 37 36
4 4 5 38 37
4 5 6 39 38
4 6 7 40 39
4 7 8 41 40
4 8 9 42 41
4 9 10 43 42
4 10 11 44 43
4 11 12 45 44
4 12 13 46 45
4 13 14 47 46
4 14 15 48 47
4 15 16 49 48
4 16 17 50 49
4 17 18 51 50
4 18 19 52 51
4 19 20 53 52
4 20 21 54 53
4 21 22 55 54
4 22 23 56 55
4 23 24 57 56
4 24 25 58 57
4 25 26 59 58
4 26 27 60 59
4 27 28 61 60
4 28 29 62 61
4 29 30 63 62
4 30 31 64 63
4 31 32 65 64
4 33 34 67 66
4 34 35 68 67
4 35 36 69 68
4 36 37 70 69
4 37 38 71 70
4 38 39 72 71
4 39 40 73 72
4 40 41 74 73
4 41 42 75 74
4 42 43 76 75
4 43 44 77 76
4 44 45 78 77
4 45 46 79 78
4 46 47 80 79
4 47 48 81 80
4 48 49 82 81
4 49 50 83 82
4 50 51 84 83
4 51 52 85 84
4 52 53 86 85
4 53 54 87 86
4 54 55 88 87
4 55 56 89 88
4 56 57 90 89
4 57 58 91 90
4 58 59 92 91
4 59 60 93 92
4 60 61 94 93
4 61 62 95 94
4 62 63 96 95
4 63 64 97 96
4 64 65 98 97
4 66 67 100 99
4 67 68 101 100
4 68 69 102 101
4 69 70 103 102
4 70 71 104 103
4 71 72 105 104
4 72 73 106 105
4 73 74 107 106
4 74 75 108 107
4 75 76 109 108
4 76 77 110 109
4 77 78 111 110
4 78 79 112 111
4 79 80 113 112
4 80 81 114 113
4 81 82 115 114
4 82 83 116 115
4 83 84 117 116
4 84 85 118 117
4 85 86 119 118
4 86 87 120 119
4 87 88 121 120
4 88 89 122 121
4 89 90 123 122
4 90 91 124 123
4 91 92 125 124
4 92 93 126 125
4 93 94 127 126
4 94 95 128 127
4 95 96 129 128
4 96 97 130 129
4 97 98 131 130
4 99 100 133 132
4 100 101 134 133
4 101 102 135 134
4 102 103 136 135
4 103 104 137 136
4 104 105 138 137
4 105 106 139 138
4 106 107 140 139
4 107 108 141 140
4 108 109 142 141
4 109 110 143 142
4 110 111 144 143
4 111 112 145 144
4 112 113 146 145
4 113 114 147 146
4 114 115 148 147
4 115 116 149 148
4 116 117 150 149
4 117 118 151 150
4 118 119 152 151
4 119 120 153 152
4 120 121 154 153
4 121 122 155 154
4 122 123 156 155
4 123 124 157 156
4 124 125 158 157
4 125 126 159 158
4 126 127 160 159
4 127 128 161 160
4 128 129 162 161
4 129 130 163 162
4 130 131 164 163
4 132 133 166 165
4 133 134 167 166
4 134 135 168 167
4 135 136 169 168
4 136 137 170 169
4 137 138 171 170
4 138 139 172 171
4 139 140 173 172
4 140 141 174 173
4 141 142 175 174
4 142 143 176 175
4 143 144 177 176
4 144 145 178 177
4 145 146 179 178
4 146 147 180 179
4 147 148 181 180
4 148 149 182 181
4 149 150 183 182
4 150 151 184 183
4 151 152 185 184
4 152 153 186 185
4 153 154 187 186
4 154 155 188 187
4 155 156 189 188
4 156 157 190 189
4 157 158 191 190
4 158 159 192 191
4 159 160 193 192
4 160 161 194 193
4 161 162 195 194
4 162 163 196 195
4 163 164 197 196
4 165 166 199 198
4 166 167 200 199
4 167 168 201 200
4 168 169 202 201
4 169 170 203 202
4 170 171 204 203
4 171 172 205 204
4 172 173 206 205
4 173 174 207 206
4 174 175 208 207
4 175 176 209 208
4 176 177 210 209
4 177 178 211 210
4 178 179 212 211
4 179 180 213 212
4 180 181 214 213
4 181 182 215 214
4 182 183 216 215
4 183 184 217 216
4 184 185 218 217
4 185 186 219 218
4 186 187 220 219
4 187 188 221 220
4 188 189 222 221
4 189 190 223 222
4 190 191 224 223
4 191 192 225 224
4 192 193 226 225
4 193 194 227 226
4 194 195 228 227
4 195 196 229 228
4 196 197 230 229
4 198 199 232 231
4 199 200 233 232
4 200 201 234 233
4 201 202 235 234
4 202 203 236 235
4 203 204 237 236
4 204 205 238 237
4 205 206 239 238
4 206 207 240 239
4 207 208 241 240
4 208 209 242 241
4 209 210 243 242
4 210 211 244 243
4 211 212 245 244
4 212 213 246 245
4 213 214 247 246
4 214 215 248 247
4 215 216 249 248
4 216 217 250 249
4 217 218 251 250
4 218 219 252 251
4 219 220 253 252
4 220 221 254 253
4 221 222 255 254
4 222 223 256 255
4 223 224 257 256
4 224 225 258 257
4 225 226 259 258
4 226 227 260 259
4 227 228 261 260
4 228 229 262 261
4 229 230 263 262
4 231 232 265 264
4 232 233 266 265
4 233 234 267 266
4 234 235 268 267
4 235 236 269 268
4 236 237 270 269
4 237 238 271 270
4 238 239 272 271
4 239 240 273 272
4 240 241 274 273
4 241 242 275 274
4 242 243 276 275
4 243 244 277 276
4 244 245 278 277
4 245 246 279 278
4 246 247 280 279
4 247 248 281 280
4 248 249 282 281
4 249 250 283 282
4 250 251 284 283
4 251 252 285 284
4 252 253 286 285
4 253 254 287 286
4 254 255 288 287
4 255 256 289 288
4 256 257 290 289
4 257 258 291 290
4 258 259 292 291
4 259 260 293 292
4 260 261 294 293
4 261 262 295 294
4 262 263 296 295
4 264 265 298 297
4 265 266 299 298
4 266 267 300 299
4 267 268 301 300
4 268 269 302 301
4 269 270 303 302
4 270 271 304 303
4 271 272 305 304
4 272 273 306 305
4 273 274 307 306
4 274 275 308 307
4 275 276 309 308
4 276 277 310 309
4 277 278 311 310
4 278 279 312 311
4 279 280 313 312
4 280 281 314 313
4 281 282 315 314
4 282 283 316 315
4 283 284 317 316
4 284 285 318 317
4 285 286 319 318
4 286 287 320 319
4 287 288 321 320
4 288 289 322 321
4 289 290 323 322
4 290 291 324 323
4 291 292 325 324
4 292 293 326 325
4 293 294 327 326
4 294 295 328 327
4 295 296 329 328
4 297 298 331 330
4 298 299 332 331
4 299 300 333 332
4 300 301 334 333
4 301 302 335 334
4 302 303 336 335
4 303 304 337 336
4 304 305 338 337
4 305 306 339 338
4 306 307 340 339
4 307 308 341 340
4 308 309 342 341
4 309 310 343 342
4 310 311 344 343
4 311 312 345 344
4 312 313 346 345
4 313 314 347 346
4 314 315 348 347
4 315 316 349 348
4 316 317 350 349
4 317 318 351 350
4 318 319 352 351
4 319 320 353 352
4 320 321 354 353
4 321 322 355 354
4 322 323 356 355
4 323 324 357 356
4 324 325 358 357
4 325 326 359 358
4 326 327 360 359
4 327 328 361 360
4 328 329 362 361
4 330 331 364 363
4 331 332 365 364
4 332 333 366 365
4 333 334 367 366
4 334 335 368 367
4 335 336 369 368
4 336 337 370 369
4 337 338 371 370
4 338 339 372 371
4 339 340 373 372
4 340 341 374 373
4 341 342 375 374
4 342 343 376 375
4 343 344 377 376
4 344 345 378 377
4 345 346 379 378
4 346 347 380 379
4 347 348 381 380
4 348 349 382 381
4 349 350 383 382
4 350 351 384 383
4 351 352 385 384
4 352 353 386 385
4 353 354 387 386
4 354 355 388 387
4 355 356 389 388
4 356 357 390 389
4 357 358 391 390
4 358 359 392 391
4 359 360 393 392
4 360 361 394 393
4 361 362 395 394
4 363 364 397 396
4 364 365 398 397
4 365 366 399 398
4 366 367 400 399
4 367 368 401 400
4 368 369 402 401
4 369 370 403 402
4 370 371 404 403
4 371 372 405 404
4 372 373 406 405
4 373 374 407 406
4 374 375 408 407
4 375 376 409 408
4 376 377 410 409
4 377 378 411 410
4 378 379 412 411
4 379 380 413 412
4 380 381 414 413
4 381 382 415 414
4 382 383 416 415
4 383 384 417 416
4 384 385 418 417
4 385 386 419 418
4 386 387 420 419
4 387 388 421 420
4 388 389 422 421
4 389 390 423 422
4 390 391 424 423
4 391 392 425 424
4 392 393 426 425
4 393 394 427 426
4 394 395 428 427
4 396 397 430 429
4 397 398 431 430
4 398 399 432 431
4 399 400 433 432
4 400 401 434 433
4 401 402 435 434
4 402 403 436 435
4 403 404 437 436
4 404 405 438 437
4 405 406 439 438
4 406 407 440 439
4 407 408 441 440
4 408 409 442 441
4 409 410 443 442
4 410 411 444 443
4 411 412 445 444
4 412 413 446 445
4 413 414 447 446
4 414 415 448 447
4 415 416 449 448
4 416 417 450 449
4 417 418 451 450
4 418 419 452 451
4 419 420 453 452
4 420 421 454 453
4 421 422 455 454
4 422 423 456 455
4 423 424 457 456
4 424 425 458 457
4 425 426 459 458
4 426 427 460 459
4 427 428 461 460
4 429 430 463 462
4 430 431 464 463
4 431 432 465 464
4 432 433 466 465
4 433 434 467 466
4 434 435 468 467
4 435 436 469 468
4 436 437 470 469
4 437 438 471 470
4 438 439 472 471
4 439 440 473 472
4 440 441 474 473
4 441 442 475 474
4 442 443 476 475
4 443 444 477 476
4 444 445 478 477
4 445 446 479 478
4 446 447 480 479
4 447 448 481 480
4 448 449 482 481
4 449 450 483 482
4 450 451 484 483
4 451 452 485 484
4 452 453 486 485
4 453 454 487 486
4 454 455 488 487
4 455 456 489 488
4 456 457 490 489
4 457 458 491 490
4 458 459 492 491
4 459 460 493 492
4 460 461 494 493
4 462 463 496 495
4 463 464 497 496
4 464 465 498 497
4 465 466 499 498
4 466 467 500 499
4 467 468 501 500
4 468 469 502 501
4 469 470 503 502
4 470 471 504 503
4 471 472 505 504
4 472 473 506 505
4 473 474 507 506
4 474 475 508 507
4 475 476 509 508
4 476 477 510 509
4 477 478 511 510
4 478 479 512 511
4 479 480 513 512
4 480 481 514 513
4 481 482 515 514
4 482 483 516 515
4 483 484 517 516
4 484 485 518 517
4 485 486 519 518
4 486 487 520 519
4 487 488 521 520
4 488 489 522 521
4 489 490 523 522
4 490 491 524 523
4 491 492 525 524
4 492 493 526 525
4 493 494 527 526
4 495 496 529 528
4 496 497 530 529
4 497 498 531 530
4 498 499 532 531
4 499 500 533 532
4 500 501 534 533
4 501 502 535 534
4 502 503 536 535
4 503 504 537 536
4 504 505 538 537
4 505 506 539 538
4 506 507 540 539
4 507 508 541 540
4 508 509 542 541
4 509 510 543 542
4 510 511 544 543
4 511 512 545 544
4 512 513 546 545
4 513 514 547 546
4 514 515 548 547
4 515 516 549 548
4 516 517 550 549
4 517 518 551 550
4 518 519 552 551
4 519 520 553 552
4 520 521 554 553
4 521 522 555 554
4 522 523 556 555
4 523 524 557 556
4 524 525 558 557
4 525 526 559 558
4 526 527 560 559
4 528 529 562 561
4 529 530 563 562
4 530 531 564 563
4 531 532 565 564
4 532 533 566 565
4 533 534 567 566
4 534 535 568 567
4 535 536 569 568
4 536 537 570 569
4 537 538 571 570
4 538 539 572 571
4 539 540 573 572
4 540 541 574 573
4 541 542 575 574
4 542 543 576 575
4 543 544 577 576
4 544 545 578 577
4 545 546 579 578
4 546 547 580 579
4 547 548 581 580
4 548 549 582 581
4 549 550 583 582
4 550 551 584 583
4 551 552 585 584
4 552 553 586 585
4 553 554 587 586
4 554 555 588 587
4 555 556 589 588
4 556 557 590 589
4 557 558 591 590
4 558 559 592 591
4 559 560 593 592
4 561 562 595 594
4 562 563 596 595
4 563 564 597 596
4 564 565 598 597
4 565 566 599 598
4 566 567 600 599
4 567 568 601 600
4 568 569 602 601
4 569 570 603 602
4 570 571 604 603
4 571 572 605 604
4 572 573 606 605
4 573 574 607 606
4 574 575 608 607
4 575 576 609 608
4 576 577 610 609
4 577 578 611 610
4 578 579 612 611
4 579 580 613 612
4 580 581 614 613
4 581 582 615 614
4 582 583 616 615
4 583 584 617 616
4 584 585 618 617
4 585 586 619 618
4 586 587 620 619
4 587 588 621 620
4 588 589 622 621
4 589 590 623 622
4 590 591 624 623
4 591 592 625 624
4 592 593 626 625
4 594 595 628 627
4 595 596 629 628
4 596 597 630 629
4 597 598 631 630
4 598 599 632 631
4 599 600 633 632
4 600 601 634 633
4 601 602 635 634
4 602 603 636 635
4 603 604 637 636
4 604 605 638 637
4 605 606 639 638
4 606 607 640 639
4 607 608 641 640
4 608 609 642 641
4 609 610 643 642
4 610 611 644 643
4 611 612 645 644
4 612 613 646 645
4 613 614 647 646
4 614 615 648 647
4 615 616 649 648
4 616 617 650 649
4 617 618 651 650
4 618 619 652 651
4 619 620 653 652
4 620 621 654 653
4 621 622 655 654
4 622 623 656 655
4 623 624 657 656
4 624 625 658 657
4 625 626 659 658
4 627 628 661 660
4 628 629 662 661
4 629 630 663 662
4 630 631 664 663
4 631 632 665 664
4 632 633 666 665
4 633 634 667 666
4 634 635 668 667
4 635 636 669 668
4 636 637 670 669
4 637 638 671 670
4 638 639 672 671
4 639 640 673 672
4 640 641 674 673
4 641 642 675 674
4 642 643 676 675
4 643 644 677 676
4 644 645 678 677
4 645 646 679 678
4 646 647 680 679
4 647 648 681 680
4 648 649 682 681
4 649 650 683 682
4 650 651 684 683
4 651 652 685 684
4 652 653 686 685
4 653 654 687 686
4 654 655 688 687
4 655 656 689 688
4 656 657 690 689
4 657 658 691 690
4 658 659 692 691
4 660 661 694 693
4 661 662 695 694
4 662 663 696 695
4 663 664 697 696
4 664 665 698 697
4 665 666 699 698
4 666 667 700 699
4 667 668 701 700
4 668 669 702 701
4 669 670 703 702
4 670 671 704 703
4 671 672 705 704
4 672 673 706 705
4 673 674 707 706
4 674 675 708 707
4 675 676 709 708
4 676 677 710 709
4 677 678 711 710
4 678 679 712 711
4 679 680 713 712
4 680 681 714 713
4 681 682 715 714
4 682 683 716 715
4 683 684 717 716
4 684 685 718 717
4 685 686 719 718
4 686 687 720 719
4 687 688 721 720
4 688 689 722 721
4 689 690 723 722
4 690 691 724 723
4 691 692 725 724
4 693 694 727 726
4 694 695 728 727
4 695 696 729 728
4 696 697 730 729
4 697 698 731 730
4 698 699 732 731
4 699 700 733 732
4 700 701 734 733
4 701 702 735 734
4 702 703 736 735
4 703 704 737 736
4 704 705 738 737
4 705 706 739 738
4 706 707 740 739
4 707 708 741 740
4 708 709 742 741
4 709 710 743 742
4 710 711 744 743
4 711 712 745 744
4 712 713 746 745
4 713 714 747 746
4 714 715 748 747
4 715 716 749 748
4 716 717 750 749
4 717 718 751 750
4 718 719 752 751
4 719 720 753 752
4 720 721 754 753
4 721 722 755 754
4 722 723 756 755
4 723 724 757 756
4 724 725 758 757
4 726 727 760 759
4 727 728 761 760
4 728 729 762 761
4 729 730 763 762
4 730 731 764 763
4 731 732 765 764
4 732 733 766 765
4 733 734 767 766
4 734 735 768 767
4 735 736 769 768
4 736 737 770 769
4 737 738 771 770
4 738 739 772 771
4 739 740 773 772
4 740 741 774 773
4 741 742 775 774
4 742 743 776 775
4 743 744 777 776
4 744 745 778 777
4 745 746 779 778
4 746 747 780 779
4 747 748 781 780
4 748 749 782 781
4 749 750 783 782
4 750 751 784 783
4 751 752 785 784
4 752 753 786 785
4 753 754 787 786
4 754 755 788 787
4 755 756 789 788
4 756 757 790 789
4 757 758 791 790
4 759 760 793 792
4 760 761 794 793
4 761 762 795 794
4 762 763 796 795
4 763 764 797 796
4 764 765 798 797
4 765 766 799 798
4 766 767 800 799
4 767 768 801 800
4 768 769 802 801
4 769 770 803 802
4 770 771 804 803
4 771 772 805 804
4 772 773 806 805
4 773 774 807 806
4 774 775 808 807
4 775 776 809 808
4 776 777 810 809
4 777 778 811 810
4 778 779 812 811
4 779 780 813 812
4 780 781 814 813
4 781 782 815 814
4 782 783 816 815
4 783 784 817 816
4 784 785 818 817
4 785 786 819 818
4 786 787 820 819
4 787 788 821 820
4 788 789 822 821
4 789 790 823 822
4 790 791 824 823
4 792 793 826 825
4 793 794 827 826
4 794 795 828 827
4 795 796 829 828
4 796 797 830 829
4 797 798 831 830
4 798 799 832 831
4 799 800 833 832
4 800 801 834 833
4 801 802 835 834
4 802 803 836 835
4 803 804 837 836
4 804 805 838 837
4 805 806 839 838
4 806 807 840 839
4 807 808 841 840
4 808 809 842 841
4 809 810 843 842
4 810 811 844 843
4 811 812 845 844
4 812 813 846 845
4 813 814 847 846
4 814 815 848 847
4 815 816 849 848
4 816 817 850 849
4 817 818 851 850
4 818 819 852 851
4 819 820 853 852
4 820 821 854 853
4 821 822 855 854
4 822 823 856 855
4 823 824 857 856
4 825 826 859 858
4 826 827 860 859
4 827 828 861 860
4 828 829 862 861
4 829 830 863 862
4 830 831 864 863
4 831 832 865 864
4 832 833 866 865
4 833 834 867 866
4 834 835 868 867
4 835 836 869 868
4 836 837 870 869
4 837 838 871 870
4 838 839 872 871
4 839 840 873 872
4 840 841 874 873
4 841 842 875 874
4 842 843 876 875
4 843 844 877 876
4 844 845 878 877
4 845 846 879 878
4 846 847 880 879
4 847 848 881 880
4 848 849 882 881
4 849 850 883 882
4 850 851 884 883
4 851 852 885 884
4 852 853 886 885
4 853 854 887 886
4 854 855 888 887
4 855 856 889 888
4 856 857 890 889
4 858 859 892 891
4 859 860 893 892
4 860 861 894 893
4 861 862 895 894
4 862 863 896 895
4 863 864 897 896
4 864 865 898 897
4 865 866 899 898
4 866 867 900 899
4 867 868 901 900
4 868 869 902 901
4 869 870 903 902
4 870 871 904 903
4 871 872 905 904
4 872 873 906 905
4 873 874 907 906
4 874 875 908 907
4 875 876 909 908
4 876 877 910 909
4 877 878 911 910
4 878 879 912 911
4 879 880 913 912
4 880 881 914 913
4 881 882 915 914
4 882 883 916 915
4 883 884 917 916
4 884 885 918 917
4 885 886 919 918
4 886 887 920 919
4 887 888 921 920
4 888 889 922 921
4 889 890 923 922
4 891 892 925 924
4 892 893 926 925
4 893 894 927 926
4 894 895 928 927
4 895 896 929 928
4 896 897 930 929
4 897 898 931 930
4 898 899 932 931
4 899 900 933 932
4 900 901 934 933
4 901 902 935 934
4 902 903 936 935
4 903 904 937 936
4 904 905 938 937
4 905 906 939 938
4 906 907 940 939
4 907 908 941 940
4 908 909 942 941
4 909 910 943 942
4 910 911 944 943
4 911 912 945 944
4 912 913 946 945
4 913 914 947 946
4 914 915 948 947
4 915 916 949 948
4 916 917 950 949
4 917 918 951 950
4 918 919 952 951
4 919 920 953 952
4 920 921 954 953
4 921 922 955 954
4 922 923 956 955
4 924 925 958 957
4 925 926 959 958
4 926 927 960 959
4 927 928 961 960
4 928 929 962 961
4 929 930 963 962
4 930 931 964 963
4 931 932 965 964
4 932 933 966 965
4 933 934 967 966
4 934 935 968 967
4 935 936 969 968
4 936 937 970 969
4 937 938 971 970
4 938 939 972 971
4 939 940 973 972
4 940 941 974 973
4 941 942 975 974
4 942 943 976 975
4 943 944 977 976
4 944 945 978 977
4 945 946 979 978
4 946 947 980 979
4 947 948 981 980
4 948 949 982 981
4 949 950 983 982
4 950 951 984 983
4 951 952 985 984
4 952 953 986 985
4 953 954 987 986
4 954 955 988 987
4 955 956 989 988
4 957 958 991 990
4 958 959 992 991
4 959 960 993 992
4 960 961 994 993
4 961 962 995 994
4 962 963 996 995
4 963 964 997 996
4 964 965 998 997
4 965 966 999 998
4 966 967 1000 999
4 967 968 1001 1000
4 968 969 1002 1001
4 969 970 1003 1002
4 970 971 1004 1003
4 971 972 1005 1004
4 972 973 1006 1005
4 973 974 1007 1006
4 974 975 1008 1007
4 975 976 1009 1008
4 976 977 1010 1009
4 977 978 1011 1010
4 978 979 1012 1011
4 979 980 1013 1012
4 980 981 1014 1013
4 981 982 1015 1014
4 982 983 1016 1015
4 983 984 1017 1016
4 984 985 1018 1017
4 985 986 1019 1018
4 986 987 1020 1019
4 987 988 1021 1020
4 988 989 1022 1021
4 990 991 1024 1023
4 991 992 1025 1024
4 992 993 1026 1025
4 993 994 1027 1026
4 994 995 1028 1027
4 995 996 1029 1028
4 996 997 1030 1029
4 997 998 1031 1030
4 998 999 1032 1031
4 999 1000 1033 1032
4 1000 1001 1034 1033
4 1001 1002 1035 1034
4 1002 1003 1036 1035
4 1003 1004 1037 1036
4 1004 1005 1038 1037
4 1005 1006 1039 1038
4 1006 1007 1040 1039
4 1007 1008 1041 1040
4 1008 1009 1042 1041
4 1009 1010 1043 1042
4 1010 1011 1044 1043
4 1011 1012 1045 1044
4 1012 1013 1046 1045
4 1013 1014 1047 1046
4 1014 1015 1048 1047
4 1015 1016 1049 1048
4 1016 1017 1050 1049
4 1017 1018 1051 1050
4 1018 1019 1052 1051
4 1019 1020 1053 1052
4 1020 1021 1054 1053
4 1021 1022 1055 1054
4 1023 1024 1057 1056
4 1024 1025 1058 1057
4 1025 1026 1059 1058
4 1026 1027 1060 1059
4 1027 1028 1061 1060
4 1028 1029 1062 1061
4 1029 1030 1063 1062
4 1030 1031 1064 1063
4 1031 1032 1065 1064
4 1032 1033 1066 1065
4 1033 1034 1067 1066
4 1034 1035 1068 1067
4 1035 1036 1069 1068
4 1036 1037 1070 1069
4 1037 1038 1071 1070
4 1038 1039 1072 1071
4 1039 1040 1073 1072
4 1040 1041 1074 1073
4 1041 1042 1075 1074
4 1042 1043 1076 1075
4 1043 1044 1077 1076
4 1044 1045 1078 1077
4 1045 1046 1079 1078
4 1046 1047 1080 1079
4 1047 1048 1081 1080
4 1048 1049 1082 1081
4 1049 1050 1083 1082
4 1050 1051 1084 1083
4 1051 1052 1085 1084
4 1052 1053 1086 1085
4 1053 1054 1087 1086
4 1054 1055 1088 1087
CELL_TYPES 1024
9
9
9
9
9
9
9
9
9
9
9
9
9
9
9
9
9
9
9
9
9
9
9
9
9
9
9
9
9
9
9
9
9
9
9
9
9
9
9
9
9
9
9
9
9
9
9
9
9
9
9
9
9
9
9
9
9
9
9
9
9
9
9
9
9
9
9
9
9
9
9
9
9
9
9
9
9
9
9
9
9
9
9
9
9
9
9
9
9
9
9
9
9
9
9
9
9
9
9
9
9
9
9
9
9
9
9
9
9
9
9
9
9
9
9
9
9
9
9
9
9
9
9
9
9
9
9
9
9
9
9
9
9
9
9
9
9
9
9
9
9
9
9
9
9
9
9
9
9
9
9
9
9
9
9
9
9
9
9
9
9
9
9
9
9
9
9
9
9
9
9
9
9
9
9
9
9
9
9
9
9
9
9
9
9
9
9
9
9
9
9
9
9
9
9
9
9
9
9
9
9
9
9
9
9
9
9
9
9
9
9
9
9
9
9
9
9
9
9
9
9
9
9
9
9
9
9
9
9
9
9
9
9
9
9
9
9
9
9
9
9
9
9
9
9
9
9
9
9
9
9
9
9
9
9
9
9
9
9
9
9
9
9
9
9
9
9
9
9
9
9
9
9
9
9
9
9
9
9
9
9
9
9
9
9
9
9
9
9
9
9
9
9
9
9
9
9
9
9
9
9
9
9
9
9
9
9
9
9
9
9
9
9
9
9
9
9
9
9
9
9
9
9
9
9
9
9
9
9
9
9
9
9
9
9
9
9
9
9
9
9
9
9
9
9
9
9
9
9
9
9
9
9
9
9
9
9
9
9
9
9
9
9
9
9
9
9
9
9
9
9
9
9
9
9
9
9
9
9
9
9
9
9
9
9
9
9
9
9
9
9
9
9
9
9
9
9
9
9
9
9
9
9
9
9
9
9
9
9
9
9
9
9
9
9
9
9
9
9
9
9
9
9
9
9
9
9
9
9
9
9
9
9
9
9
9
9
9
9
9
9
9
9
9
9
9
9
9
9
9
9
9
9
9
9
9
9
9
9
9
9
9
9
9
9
9
9
9
9
9
9
9
9
9
9
9
9
9
9
9
9
9
9
9
9
9
9
9
9
9
9
9
9
9
9
9
9
9
9
9
9
9
9
9
9
9
9
9
9
9
9
9
9
9
9
9
9
9
9
9
9
9
9
9
9
9
9
9
9
9
9
9
9
9
9
9
9
9
9
9
9
9
9
9
9
9
9
9
9
9
9
9
9
9
9
9
9
9
9
9
9
9
9
9
9
9
9
9
9
9
9
9
9
9
9
9
9
9
9
9
9
9
9
9
9
9
9
9
9
9
9
9
9
9
9
9
9
9
9
9
9
9
9
9
9
9
9
9
9
9
9
9
9
9
9
9
9
9
9
9
9
9
9
9
9
9
9
9
9
9
9
9
9
9
9
9
9
9
9
9
9
9
9
9
9
9
9
9
9
9
9
9
9
9
9
9
9
9
9
9
9
9
9
9
9
9
9
9
9
9
9
9
9
9
9
9
9
9
9
9
9
9
9
9
9
9
9
9
9
9
9
9
9
9
9
9
9
9
9
9
9
9
9
9
9
9
9
9
9
9
9
9
9
9
9
9
9
9
9
9
9
9
9
9
9
9
9
9
9
9
9
9
9
9
9
9
9
9
9
9
9
9
9
9
9
9
9
9
9
9
9
9
9
9
9
9
9
9
9
9
9
9
9
9
9
9
9
9
9
9
9
9
9
9
9
9
9
9
9
9
9
9
9
9
9
9
9
9
9
9
9
9
9
9
9
9
9
9
9
9
9
9
9
9
9
9
9
9
9
9
9
9
9
9
9
9
9
9
9
9
9
9
9
9
9
9
9
9
9
9
9
9
9
9
9
9
9
9
9
9
9
9
9
9
9
9
9
9
9
9
9
9
9
9
9
9
9
9
9
9
9
9
9
9
9
9
9
9
9
9
9
9
9
9
9
9
9
9
9
9
9
9
9
9
9
9
9
9
9
9
9
9
9
9
9
9
9
9
9
9
9
9
9
9
9
9
9
9
9
9
9
9
9
9
9
9
9
9
9
9
9
9
9
9
9
9
9
9
9
9
9
9
9
9
9
9
9
9
9
9
9
9
9
9
9
9
9
9
9
9
9
9
9
9
9
9
9
9
9
9
9
9
9
9
9
9
9
9
9
9
9
9
9
9
9
9
9
9
9
9
9
9
9
9
9
9
9
9
9
9
9
9
9
9
9
9
9
9
9
9
9
9
9
9
9
9
9
9
9
9
9
9
9
9
9
9
9
9
9
9
9
9
9
9
POINT_DATA 1089
VECTORS Displacement float
0 0 0
0 0 0
0 0 0
0 0 0
0 0 0
0 0 0
0 0 0
0 0 0
0 0 0
0 0 0
0 0 0
0 0 0
0 0 0
0 0 0
0 0 0
0 0 0
0 0 0
0 0 0
0 0 0
0 0 0
0 0 0
0 0 0
0 0 0
0 0 0
0 0 0
0 0 0
0 0 0
0 0 0
0 0 0
0 0 0
0 0 0
0 0 0
0 0 0
0 0 0
0 0 -1.96619e-05
0 0 -8.03245e-05
0 0 -0.000175361
0 0 -0.000290495
0 0 -0.000415246
0 0 -0.000541981
0 0 -0.00066532
0 0 -0.000781444
0 0 -0.000887678
0 0 -0.000982147
0 0 -0.00106356
0 0 -0.00113103
0 0 -0.00118399
0 0 -0.00122204
0 0 -0.00124495
0 0 -0.00125261
0 0 -0.00124497
0 0 -0.00122207
0 0 -0.00118404
0 0 -0.0011311
0 0 -0.00106364
0 0 -0.000982234
0 0 -0.00088777
0 0 -0.000781538
0 0 -0.00066541
0 0 -0.000542063
0 0 -0.000415315
0 0 -0.000290548
0 0 -0.000175395
0 0 -8.03416e-05
0 0 -1.96663e-05
0 0 0
0 0 0
0 0 -8.03251e-05
0 0 -0.000311931
0 0 -0.00066173
0 0 -0.00108512
0 0 -0.00154542
0 0 -0.00201519
0 0 -0.00247427
0 0 -0.0029081
0 0 -0.00330622
0 0 -0.00366118
0 0 -0.00396774
0 0 -0.00422225
0 0 -0.00442225
0 0 -0.0045661
0 0 -0.00465279
0 0 -0.00468177
0 0 -0.00465286
0 0 -0.00456623
0 0 -0.00442243
0 0 -0.00422249
0 0 -0.00396802
0 0 -0.00366149
0 0 -0.00330655
0 0 -0.00290843
0 0 -0.00247458
0 0 -0.00201547
0 0 -0.00154567
0 0 -0.0010853
0 0 -0.000661854
0 0 -0.000311994
0 0 -8.03422e-05
0 0 0
0 0 0
0 0 -0.000175363
0 0 -0.000661735
0 0 -0.00137668
0 0 -0.0022388
0 0 -0.0031786
0 0 -0.00414173
0 0 -0.00508701
0 0 -0.00598382
0 0 -0.00680963
0 0 -0.00754806
0 0 -0.00818733
0 0 -0.00871913
0 0 -0.00913766
0 0 -0.00943903
0 0 -0.00962078
0 0 -0.00968155
0 0 -0.0096209
0 0 -0.00943928
0 0 -0.00913802
0 0 -0.00871959
0 0 -0.00818788
0 0 -0.00754866
0 0 -0.00681026
0 0 -0.00598446
0 0 -0.00508762
0 0 -0.00414228
0 0 -0.00317907
0 0 -0.00223916
0 0 -0.00137692
0 0 -0.000661859
0 0 -0.000175398
0 0 0
0 0 0
0 0 -0.000290502
0 0 -0.00108513
0 0 -0.00223882
0 0 -0.00362515
0 0 -0.00513842
0 0 -0.00669392
0 0 -0.00822582
0 0 -0.009684
0 0 -0.0110308
0 0 -0.0122382
0 0 -0.0132858
0 0 -0.0141588
0 0 -0.0148469
0 0 -0.0153429
0 0 -0.0156422
0 0 -0.0157424
0 0 -0.0156424
0 0 -0.0153433
0 0 -0.0148475
0 0 -0.0141595
0 0 -0.0132866
0 0 -0.0122391
0 0 -0.0110317
0 0 -0.00968496
0 0 -0.00822675
0 0 -0.00669475
0 0 -0.00513913
0 0 -0.00362569
0 0 -0.00223918
0 0 -0.00108532
0 0 -0.000290555
0 0 0
0 0 0
0 0 -0.00041526
0 0 -0.00154546
0 0 -0.00317866
0 0 -0.00513846
0 0 -0.00727985
0 0 -0.00948591
0 0 -0.0116643
0 0 -0.0137435
0 0 -0.0156687
0 0 -0.0173986
0 0 -0.0189024
0 0 -0.0201576
0 0 -0.0211481
0 0 -0.0218628
0 0 -0.0222944
0 0 -0.0224388
0 0 -0.0222947
0 0 -0.0218633
0 0 -0.0211489
0 0 -0.0201585
0 0 -0.0189034
0 0 -0.0173998
0 0 -0.01567
0 0 -0.0137448
0 0 -0.0116656
0 0 -0.009487
0 0 -0.00728076
0 0 -0.00513917
0 0 -0.00317913
0 0 -0.00154571
0 0 -0.000415329
0 0 0
0 0 0
0 0 -0.000542003
0 0 -0.00201525
0 0 -0.00414183
0 0 -0.00669402
0 0 -0.00948598
0 0 -0.0123676
0 0 -0.0152193
0 0 -0.0179471
0 0 -0.0204782
0 0 -0.0227568
0 0 -0.0247408
0 0 -0.0263993
0 0 -0.0277094
0 0 -0.0286555
0 0 -0.0292271
0 0 -0.0294184
0 0 -0.0292274
0 0 -0.0286561
0 0 -0.0277103
0 0 -0.0264004
0 0 -0.0247421
0 0 -0.0227582
0 0 -0.0204797
0 0 -0.0179486
0 0 -0.0152208
0 0 -0.0123689
0 0 -0.00948707
0 0 -0.00669485
0 0 -0.00414238
0 0 -0.00201554
0 0 -0.000542085
0 0 0
0 0 0
0 0 -0.000665352
0 0 -0.00247437
0 0 -0.00508717
0 0 -0.008226
0 0 -0.0116645
0 0 -0.0152194
0 0 -0.0187439
0 0 -0.0221214
0 0 -0.0252608
0 0 -0.0280915
0 0 -0.0305598
0 0 -0.0326255
0 0 -0.0342589
0 0 -0.0354392
0 0 -0.0361527
0 0 -0.0363915
0 0 -0.0361531
0 0 -0.0354399
0 0 -0.0342599
0 0 -0.0326267
0 0 -0.0305613
0 0 -0.0280931
0 0 -0.0252624
0 0 -0.0221231
0 0 -0.0187455
0 0 -0.0152209
0 0 -0.0116657
0 0 -0.00822692
0 0 -0.00508778
0 0 -0.00247468
0 0 -0.000665441
0 0 0
0 0 0
0 0 -0.000781487
0 0 -0.00290823
0 0 -0.00598404
0 0 -0.00968427
0 0 -0.0137438
0 0 -0.0179474
0 0 -0.0221215
0 0 -0.0261279
0 0 -0.0298573
0 0 -0.0332245
0 0 -0.0361642
0 0 -0.0386267
0 0 -0.0405756
0 0 -0.0419847
0 0 -0.0428368
0 0 -0.0431221
0 0 -0.0428372
0 0 -0.0419854
0 0 -0.0405766
0 0 -0.038628
0 0 -0.0361657
0 0 -0.0332262
0 0 -0.029859
0 0 -0.0261296
0 0 -0.0221232
0 0 -0.0179489
0 0 -0.0137451
0 0 -0.00968523
0 0 -0.00598467
0 0 -0.00290856
0 0 -0.00078158
0 0 0
0 0 0
0 0 -0.000887731
0 0 -0.00330639
0 0 -0.00680991
0 0 -0.0110311
0 0 -0.0156691
0 0 -0.0204785
0 0 -0.025261
0 0 -0.0298574
0 0 -0.0341414
0 0 -0.0380137
0 0 -0.0413977
0 0 -0.0442348
0 0 -0.0464816
0 0 -0.048107
0 0 -0.0490903
0 0 -0.0494195
0 0 -0.0490907
0 0 -0.0481077
0 0 -0.0464826
0 0 -0.0442361
0 0 -0.0413992
0 0 -0.0380154
0 0 -0.0341431
0 0 -0.0298592
0 0 -0.0252627
0 0 -0.02048
0 0 -0.0156703
0 0 -0.0110321
0 0 -0.00681055
0 0 -0.00330672
0 0 -0.000887823
0 0 0
0 0 0
0 0 -0.000982211
0 0 -0.00366139
0 0 -0.00754841
0 0 -0.0122386
0 0 -0.0173991
0 0 -0.0227572
0 0 -0.0280919
0 0 -0.0332248
0 0 -0.0380139
0 0 -0.0423469
0 0 -0.0461365
0 0 -0.0493159
0 0 -0.0518353
0 0 -0.0536587
0 0 -0.054762
0 0 -0.0551314
0 0 -0.0547624
0 0 -0.0536594
0 0 -0.0518363
0 0 -0.0493172
0 0 -0.0461379
0 0 -0.0423485
0 0 -0.0380156
0 0 -0.0332265
0 0 -0.0280935
0 0 -0.0227587
0 0 -0.0174003
0 0 -0.0122396
0 0 -0.00754901
0 0 -0.0036617
0 0 -0.000982298
0 0 0
0 0 0
0 0 -0.00106363
0 0 -0.00396797
0 0 -0.00818775
0 0 -0.0132863
0 0 -0.018903
0 0 -0.0247414
0 0 -0.0305604
0 0 -0.0361646
0 0 -0.041398
0 0 -0.0461366
0 0 -0.0502839
0 0 -0.0537654
0 0 -0.0565254
0 0 -0.0585237
0 0 -0.0597331
0 0 -0.060138
0 0 -0.0597334
0 0 -0.0585243
0 0 -0.0565263
0 0 -0.0537665
0 0 -0.0502852
0 0 -0.0461381
0 0 -0.0413995
0 0 -0.0361662
0 0 -0.0305618
0 0 -0.0247427
0 0 -0.018904
0 0 -0.0132872
0 0 -0.00818829
0 0 -0.00396825
0 0 -0.00106371
0 0 0
0 0 0
0 0 -0.00113112
0 0 -0.00422252
0 0 -0.00871959
0 0 -0.0141595
0 0 -0.0201583
0 0 -0.0264
0 0 -0.0326261
0 0 -0.0386273
0 0 -0.0442352
0 0 -0.0493162
0 0 -0.0537655
0 0 -0.0575023
0 0 -0.0604658
0 0 -0.062612
0 0 -0.0639111
0 0 -0.0643461
0 0 -0.0639114
0 0 -0.0626125
0 0 -0.0604666
0 0 -0.0575033
0 0 -0.0537667
0 0 -0.0493175
0 0 -0.0442365
0 0 -0.0386286
0 0 -0.0326274
0 0 -0.0264011
0 0 -0.0201592
0 0 -0.0141602
0 0 -0.00872006
0 0 -0.00422276
0 0 -0.00113118
0 0 0
0 0 0
0 0 -0.00118408
0 0 -0.00442254
0 0 -0.00913816
0 0 -0.0148476
0 0 -0.0211489
0 0 -0.0277102
0 0 -0.0342597
0 0 -0.0405763
0 0 -0.0464822
0 0 -0.0518357
0 0 -0.0565257
0 0 -0.0604659
0 0 -0.0635917
0 0 -0.0658558
0 0 -0.0672266
0 0 -0.0676856
0 0 -0.0672268
0 0 -0.0658562
0 0 -0.0635923
0 0 -0.0604667
0 0 -0.0565266
0 0 -0.0518367
0 0 -0.0464832
0 0 -0.0405773
0 0 -0.0342606
0 0 -0.0277111
0 0 -0.0211496
0 0 -0.0148482
0 0 -0.00913853
0 0 -0.00442273
0 0 -0.00118413
0 0 0
0 0 0
0 0 -0.00122213
0 0 -0.00456641
0 0 -0.00943957
0 0 -0.0153436
0 0 -0.0218637
0 0 -0.0286564
0 0 -0.0354401
0 0 -0.0419855
0 0 -0.0481077
0 0 -0.0536592
0 0 -0.058524
0 0 -0.0626122
0 0 -0.0658559
0 0 -0.0682059
0 0 -0.0696287
0 0 -0.0701051
0 0 -0.0696288
0 0 -0.0682062
0 0 -0.0658563
0 0 -0.0626127
0 0 -0.0585246
0 0 -0.0536599
0 0 -0.0481084
0 0 -0.0419862
0 0 -0.0354408
0 0 -0.028657
0 0 -0.0218642
0 0 -0.015344
0 0 -0.00943982
0 0 -0.00456654
0 0 -0.00122217
0 0 0
0 0 0
0 0 -0.00124505
0 0 -0.00465311
0 0 -0.00962134
0 0 -0.015643
0 0 -0.0222953
0 0 -0.0292281
0 0 -0.0361536
0 0 -0.0428377
0 0 -0.049091
0 0 -0.0547626
0 0 -0.0597335
0 0 -0.0639114
0 0 -0.0672267
0 0 -0.0696287
0 0 -0.0710832
0 0 -0.0715702
0 0 -0.0710833
0 0 -0.0696289
0 0 -0.0672269
0 0 -0.0639117
0 0 -0.0597338
0 0 -0.054763
0 0 -0.0490914
0 0 -0.042838
0 0 -0.036154
0 0 -0.0292284
0 0 -0.0222955
0 0 -0.0156432
0 0 -0.00962146
0 0 -0.00465318
0 0 -0.00124507
0 0 0
0 0 0
0 0 -0.00125271
0 0 -0.00468209
0 0 -0.00968211
0 0 -0.0157431
0 0 -0.0224397
0 0 -0.0294193
0 0 -0.0363925
0 0 -0.0431229
0 0 -0.0494202
0 0 -0.055132
0 0 -0.0601384
0 0 -0.0643464
0 0 -0.0676857
0 0 -0.0701052
0 0 -0.0715702
0 0 -0.0720607
0 0 -0.0715702
0 0 -0.0701052
0 0 -0.0676857
0 0 -0.0643464
0 0 -0.0601384
0 0 -0.055132
0 0 -0.0494202
0 0 -0.0431229
0 0 -0.0363925
0 0 -0.0294193
0 0 -0.0224397
0 0 -0.0157431
0 0 -0.00968211
0 0 -0.00468209
0 0 -0.00125271
0 0 0
0 0 0
0 0 -0.00124507
0 0 -0.00465318
0 0 -0.00962146
0 0 -0.0156432
0 0 -0.0222955
0 0 -0.0292284
0 0 -0.036154
0 0 -0.042838
0 0 -0.0490914
0 0 -0.054763
0 0 -0.0597338
0 0 -0.0639117
0 0 -0.0672269
0 0 -0.0696289
0 0 -0.0710833
0 0 -0.0715702
0 0 -0.0710832
0 0 -0.0696287
0 0 -0.0672267
0 0 -0.0639114
0 0 -0.0597335
0 0 -0.0547626
0 0 -0.049091
0 0 -0.0428377
0 0 -0.0361536
0 0 -0.0292281
0 0 -0.0222953
0 0 -0.015643
0 0 -0.00962134
0 0 -0.00465311
0 0 -0.00124505
0 0 0
0 0 0
0 0 -0.00122217
0 0 -0.00456654
0 0 -0.00943982
0 0 -0.015344
0 0 -0.0218642
0 0 -0.028657
0 0 -0.0354408
0 0 -0.0419862
0 0 -0.0481084
0 0 -0.0536599
0 0 -0.0585246
0 0 -0.0626127
0 0 -0.0658563
0 0 -0.0682062
0 0 -0.0696288
0 0 -0.0701051
0 0 -0.0696287
0 0 -0.0682059
0 0 -0.0658559
0 0 -0.0626122
0 0 -0.058524
0 0 -0.0536592
0 0 -0.0481077
0 0 -0.0419855
0 0 -0.0354401
0 0 -0.0286564
0 0 -0.0218637
0 0 -0.0153436
0 0 -0.00943957
0 0 -0.00456641
0 0 -0.00122213
0 0 0
0 0 0
0 0 -0.00118413
0 0 -0.00442273
0 0 -0.00913853
0 0 -0.0148482
0 0 -0.0211496
0 0 -0.0277111
0 0 -0.0342606
0 0 -0.0405773
0 0 -0.0464832
0 0 -0.0518367
0 0 -0.0565266
0 0 -0.0604667
0 0 -0.0635923
0 0 -0.0658562
0 0 -0.0672268
0 0 -0.0676856
0 0 -0.0672266
0 0 -0.0658558
0 0 -0.0635917
0 0 -0.0604659
0 0 -0.0565257
0 0 -0.0518357
0 0 -0.0464822
0 0 -0.0405763
0 0 -0.0342597
0 0 -0.0277102
0 0 -0.0211489
0 0 -0.0148476
0 0 -0.00913816
0 0 -0.00442254
0 0 -0.00118408
0 0 0
0 0 0
0 0 -0.00113118
0 0 -0.00422276
0 0 -0.00872006
0 0 -0.0141602
0 0 -0.0201592
0 0 -0.0264011
0 0 -0.0326274
0 0 -0.0386286
0 0 -0.0442365
0 0 -0.0493175
0 0 -0.0537667
0 0 -0.0575033
0 0 -0.0604666
0 0 -0.0626125
0 0 -0.0639114
0 0 -0.0643461
0 0 -0.0639111
0 0 -0.062612
0 0 -0.0604658
0 0 -0.0575023
0 0 -0.0537655
0 0 -0.0493162
0 0 -0.0442352
0 0 -0.0386273
0 0 -0.0326261
0 0 -0.0264
0 0 -0.0201583
0 0 -0.0141595
0 0 -0.00871959
0 0 -0.00422252
0 0 -0.00113112
0 0 0
0 0 0
0 0 -0.00106371
0 0 -0.00396825
0 0 -0.00818829
0 0 -0.0132872
0 0 -0.018904
0 0 -0.0247427
0 0 -0.0305618
0 0 -0.0361662
0 0 -0.0413995
0 0 -0.0461381
0 0 -0.0502852
0 0 -0.0537665
0 0 -0.0565263
0 0 -0.0585243
0 0 -0.0597334
0 0 -0.060138
0 0 -0.0597331
0 0 -0.0585237
0 0 -0.0565254
0 0 -0.0537654
0 0 -0.0502839
0 0 -0.0461366
0 0 -0.041398
0 0 -0.0361646
0 0 -0.0305604
0 0 -0.0247414
0 0 -0.018903
0 0 -0.0132863
0 0 -0.00818775
0 0 -0.00396797
0 0 -0.00106363
0 0 0
0 0 0
0 0 -0.000982298
0 0 -0.0036617
0 0 -0.00754901
0 0 -0.0122396
0 0 -0.0174003
0 0 -0.0227587
0 0 -0.0280935
0 0 -0.0332265
0 0 -0.0380156
0 0 -0.0423485
0 0 -0.0461379
0 0 -0.0493172
0 0 -0.0518363
0 0 -0.0536594
0 0 -0.0547624
0 0 -0.0551314
0 0 -0.054762
0 0 -0.0536587
0 0 -0.0518353
0 0 -0.0493159
0 0 -0.0461365
0 0 -0.0423469
0 0 -0.0380139
0 0 -0.0332248
0 0 -0.0280919
0 0 -0.0227572
0 0 -0.0173991
0 0 -0.0122386
0 0 -0.00754841
0 0 -0.00366139
0 0 -0.000982211
0 0 0
0 0 0
0 0 -0.000887823
0 0 -0.00330672
0 0 -0.00681055
0 0 -0.0110321
0 0 -0.0156703
0 0 -0.02048
0 0 -0.0252627
0 0 -0.0298592
0 0 -0.0341431
0 0 -0.0380154
0 0 -0.0413992
0 0 -0.0442361
0 0 -0.0464826
0 0 -0.0481077
0 0 -0.0490907
0 0 -0.0494195
0 0 -0.0490903
0 0 -0.048107
0 0 -0.0464816
0 0 -0.0442348
0 0 -0.0413977
0 0 -0.0380137
0 0 -0.0341414
0 0 -0.0298574
0 0 -0.025261
0 0 -0.0204785
0 0 -0.0156691
0 0 -0.0110311
0 0 -0.00680991
0 0 -0.00330639
0 0 -0.000887731
0 0 0
0 0 0
0 0 -0.00078158
0 0 -0.00290856
0 0 -0.00598467
0 0 -0.00968523
0 0 -0.0137451
0 0 -0.0179489
0 0 -0.0221232
0 0 -0.0261296
0 0 -0.029859
0 0 -0.0332262
0 0 -0.0361657
0 0 -0.038628
0 0 -0.0405766
0 0 -0.0419854
0 0 -0.0428372
0 0 -0.0431221
0 0 -0.0428368
0 0 -0.0419847
0 0 -0.0405756
0 0 -0.0386267
0 0 -0.0361642
0 0 -0.0332245
0 0 -0.0298573
0 0 -0.0261279
0 0 -0.0221215
0 0 -0.0179474
0 0 -0.0137438
0 0 -0.00968427
0 0 -0.00598404
0 0 -0.00290823
0 0 -0.000781487
0 0 0
0 0 0
0 0 -0.000665441
0 0 -0.00247468
0 0 -0.00508778
0 0 -0.00822692
0 0 -0.0116657
0 0 -0.0152209
0 0 -0.0187455
0 0 -0.0221231
0 0 -0.0252624
0 0 -0.0280931
0 0 -0.0305613
0 0 -0.0326267
0 0 -0.0342599
0 0 -0.0354399
0 0 -0.0361531
0 0 -0.0363915
0 0 -0.0361527
0 0 -0.0354392
0 0 -0.0342589
0 0 -0.0326255
0 0 -0.0305598
0 0 -0.0280915
0 0 -0.0252608
0 0 -0.0221214
0 0 -0.0187439
0 0 -0.0152194
0 0 -0.0116645
0 0 -0.008226
0 0 -0.00508717
0 0 -0.00247437
0 0 -0.000665352
0 0 0
0 0 0
0 0 -0.000542085
0 0 -0.00201554
0 0 -0.00414238
0 0 -0.00669485
0 0 -0.00948707
0 0 -0.0123689
0 0 -0.0152208
0 0 -0.0179486
0 0 -0.0204797
0 0 -0.0227582
0 0 -0.0247421
0 0 -0.0264004
0 0 -0.0277103
0 0 -0.0286561
0 0 -0.0292274
0 0 -0.0294184
0 0 -0.0292271
0 0 -0.0286555
0 0 -0.0277094
0 0 -0.0263993
0 0 -0.0247408
0 0 -0.0227568
0 0 -0.0204782
0 0 -0.0179471
0 0 -0.0152193
0 0 -0.0123676
0 0 -0.00948598
0 0 -0.00669402
0 0 -0.00414183
0 0 -0.00201525
0 0 -0.000542003
0 0 0
0 0 0
0 0 -0.000415329
0 0 -0.00154571
0 0 -0.00317913
0 0 -0.00513917
0 0 -0.00728076
0 0 -0.009487
0 0 -0.0116656
0 0 -0.0137448
0 0 -0.01567
0 0 -0.0173998
0 0 -0.0189034
0 0 -0.0201585
0 0 -0.0211489
0 0 -0.0218633
0 0 -0.0222947
0 0 -0.0224388
0 0 -0.0222944
0 0 -0.0218628
0 0 -0.0211481
0 0 -0.0201576
0 0 -0.0189024
0 0 -0.0173986
0 0 -0.0156687
0 0 -0.0137435
0 0 -0.0116643
0 0 -0.00948591
0 0 -0.00727985
0 0 -0.00513846
0 0 -0.00317866
0 0 -0.00154546
0 0 -0.00041526
0 0 0
0 0 0
0 0 -0.000290555
0 0 -0.00108532
0 0 -0.00223918
0 0 -0.00362569
0 0 -0.00513913
0 0 -0.00669475
0 0 -0.00822675
0 0 -0.00968496
0 0 -0.0110317
0 0 -0.0122391
0 0 -0.0132866
0 0 -0.0141595
0 0 -0.0148475
0 0 -0.0153433
0 0 -0.0156424
0 0 -0.0157424
0 0 -0.0156422
0 0 -0.0153429
0 0 -0.0148469
0 0 -0.0141588
0 0 -0.0132858
0 0 -0.0122382
0 0 -0.0110308
0 0 -0.009684
0 0 -0.00822582
0 0 -0.00669392
0 0 -0.00513842
0 0 -0.00362515
0 0 -0.00223882
0 0 -0.00108513
0 0 -0.000290502
0 0 0
0 0 0
0 0 -0.000175398
0 0 -0.000661859
0 0 -0.00137692
0 0 -0.00223916
0 0 -0.00317907
0 0 -0.00414228
0 0 -0.00508762
0 0 -0.00598446
0 0 -0.00681026
0 0 -0.00754866
0 0 -0.00818788
0 0 -0.00871959
0 0 -0.00913802
0 0 -0.00943928
0 0 -0.0096209
0 0 -0.00968155
0 0 -0.00962078
0 0 -0.00943903
0 0 -0.00913766
0 0 -0.00871913
0 0 -0.00818733
0 0 -0.00754806
0 0 -0.00680963
0 0 -0.00598382
0 0 -0.00508701
0 0 -0.00414173
0 0 -0.0031786
0 0 -0.0022388
0 0 -0.00137668
0 0 -0.000661735
0 0 -0.000175363
0 0 0
0 0 0
0 0 -8.03422e-05
0 0 -0.000311994
0 0 -0.000661854
0 0 -0.0010853
0 0 -0.00154567
0 0 -0.00201547
0 0 -0.00247458
0 0 -0.00290843
0 0 -0.00330655
0 0 -0.00366149
0 0 -0.00396802
0 0 -0.00422249
0 0 -0.00442243
0 0 -0.00456623
0 0 -0.00465286
0 0 -0.00468177
0 0 -0.00465279
0 0 -0.0045661
0 0 -0.00442225
0 0 -0.00422225
0 0 -0.00396774
0 0 -0.00366118
0 0 -0.00330622
0 0 -0.0029081
0 0 -0.00247427
0 0 -0.00201519
0 0 -0.00154542
0 0 -0.00108512
0 0 -0.00066173
0 0 -0.000311931
0 0 -8.03251e-05
0 0 0
0 0 0
0 0 -1.96663e-05
0 0 -8.03416e-05
0 0 -0.000175395
0 0 -0.000290548
0 0 -0.000415315
0 0 -0.000542063
0 0 -0.00066541
0 0 -0.000781538
0 0 -0.00088777
0 0 -0.000982234
0 0 -0.00106364
0 0 -0.0011311
0 0 -0.00118404
0 0 -0.00122207
0 0 -0.00124497
0 0 -0.00125261
0 0 -0.00124495
0 0 -0.00122204
0 0 -0.00118399
0 0 -0.00113103
0 0 -0.00106356
0 0 -0.000982147
0 0 -0.000887678
0 0 -0.000781444
0 0 -0.00066532
0 0 -0.000541981
0 0 -0.000415246
0 0 -0.000290495
0 0 -0.000175361
0 0 -8.03245e-05
0 0 -1.96619e-05
0 0 0
0 0 0
0 0 0
0 0 0
0 0 0
0 0 0
0 0 0
0 0 0
0 0 0
0 0 0
0 0 0
0 0 0
0 0 0
0 0 0
0 0 0
0 0 0
0 0 0
0 0 0
0 0 0
0 0 0
0 0 0
0 0 0
0 0 0
0 0 0
0 0 0
0 0 0
0 0 0
0 0 0
0 0 0
0 0 0
0 0 0
0 0 0
0 0 0
0 0 0
CELL_DATA 1024
SCALARS Stress float 1
LOOKUP_TABLE default
0
0
0
0
0
0
0
0
0
0
0
0
0
0
0
0
0
0
0
0
0
0
0
0
0
0
0
0
0
0
0
0
0.252111
0.0575358
-0.28337
-0.503244
-0.638619
-0.706802
-0.729418
-0.718435
-0.684459
-0.63378
-0.57174
-0.501607
-0.426096
-0.346881
-0.265296
-0.182172
-0.0981233
-0.0135879
0.0711399
0.155684
0.239784
0.322808
0.404266
0.482873
0.557618
0.625922
0.685903
0.732294
0.762033
0.761063
0.724286
0.468311
1.24588
0.693562
-0.0124798
-0.57846
-0.964697
-1.20881
-1.3423
-1.39475
-1.38703
-1.33571
-1.25275
-1.14705
-1.02534
-0.892238
-0.751452
-0.605134
-0.455261
-0.302541
-0.147977
0.00855515
0.166546
0.326614
0.488443
0.653061
0.820263
0.991827
1.16791
1.35198
1.54374
1.74307
1.90568
1.69684
2.9148
1.69064
0.573178
-0.355739
-1.04732
-1.52426
-1.82923
-1.99917
-2.0672
-2.0578
-1.99133
-1.88228
-1.74251
-1.58014
-1.40174
-1.21144
-1.01246
-0.806332
-0.594051
-0.375348
-0.149497
0.0852623
0.331364
0.592306
0.872903
1.17938
1.52026
1.90535
2.34339
2.83083
3.27879
3.50938
4.98472
3.01281
1.38131
0.0668591
-0.947091
-1.68677
-2.19645
-2.52104
-2.70012
-2.7667
-2.74745
-2.66318
-2.53039
-2.36117
-2.16507
-1.94826
-1.7155
-1.46879
-1.20935
-0.935944
-0.646775
-0.337475
-0.00303971
0.364669
0.774944
1.24101
1.77772
2.40217
3.12825
3.94577
4.81309
5.65725
7.25554
4.54508
2.37071
0.638331
-0.709504
-1.72448
-2.45727
-2.95784
-3.27225
-3.43901
-3.49109
-3.45419
-3.34954
-3.1928
-2.99642
-2.76868
-2.51557
-2.23977
-1.94218
-1.6208
-1.27189
-0.888804
-0.462786
0.0183055
0.569372
1.20933
1.9594
2.84338
3.87886
5.07648
6.43361
7.95646
9.57996
6.18821
3.47829
1.32412
-0.365352
-1.66014
-2.62356
-3.31157
-3.77535
-4.05868
-4.19904
-4.22682
-4.167
-4.03861
-3.85665
-3.63127
-3.36964
-3.07478
-2.74735
-2.38412
-1.97965
-1.52443
-1.00641
-0.408995
0.287546
1.10766
2.07884
3.23072
4.59317
6.1952
8.07088
10.2748
11.8546
7.85673
4.64747
2.08485
0.0605352
-1.51216
-2.70621
-3.58516
-4.20509
-4.61411
-4.85385
-4.95828
-4.95575
-4.86804
-4.71237
-4.50047
-4.24041
-3.93549
-3.58583
-3.18712
-2.73187
-2.20807
-1.60019
-0.887702
-0.0461924
0.954127
2.14643
3.56886
5.26225
7.27463
9.6654
12.5185
14.0057
9.48391
5.82553
2.88449
0.542404
-1.29689
-2.7153
-3.78227
-4.55886
-5.09705
-5.44182
-5.6303
-5.69347
-5.65545
-5.53521
-5.34579
-5.09588
-4.78889
-4.42434
-3.99668
-3.49659
-2.90947
-2.21666
-1.39387
-0.412261
0.762841
2.17104
3.85803
5.87596
8.28719
11.1685
14.6214
15.9817
11.0186
6.96923
3.68921
1.05658
-1.03089
-2.6606
-3.90726
-4.83579
-5.50165
-5.95264
-6.22842
-6.36215
-6.37977
-6.30162
-6.14171
-5.90914
-5.60725
-5.23485
-4.78523
-4.24718
-3.60377
-2.83335
-1.90814
-0.795217
0.545025
2.15793
4.09668
6.42254
9.20862
12.5435
16.537
17.7465
12.4217
8.04299
4.47002
1.5808
-0.729579
-2.55209
-3.9649
-5.03613
-5.82391
-6.37837
-6.74119
-6.94717
-7.02366
-6.99202
-6.86691
-6.65761
-6.36726
-5.9939
-5.52964
-4.96149
-4.27036
-3.43179
-2.41483
-1.18263
0.30881
2.1103
4.28131
6.89037
10.0186
13.7612
18.2328
19.2751
13.6649
9.01889
5.20265
2.09566
-0.407422
-2.39936
-3.96055
-5.16122
-6.06157
-6.71339
-7.1599
-7.4371
-7.57336
-7.59066
-7.50408
-7.32288
-7.04984
-6.68223
-6.21096
-5.62141
-4.89244
-3.99708
-2.90139
-1.56503
0.0600664
2.02943
4.40771
7.26933
10.7005
14.8011
19.6866
20.5503
14.7266
9.87541
5.86721
2.58466
-0.0771922
-2.2114
-3.89955
-5.21308
-6.21351
-6.95373
-7.478
-7.82306
-8.01792
-8.0849
-8.03923
-7.88995
-7.63942
-7.28405
-6.81366
-6.21207
-5.4563
-4.51706
-3.35778
-1.93496
-0.197
1.9156
4.47191
7.55044
11.2416
15.6471
20.883
21.5608
15.5923
10.5962
6.44841
3.03416
0.250178
-1.99638
-3.78723
-5.19435
-6.27983
-7.09715
-7.69106
-8.09867
-8.34926
-8.46517
-8.46158
-8.34716
-8.12375
-7.78691
-7.32541
-6.72165
-5.951
-4.98211
-3.77611
-2.28672
-0.459414
1.76881
4.47024
7.72707
11.6319
16.2887
21.8121
22.2991
16.2509
11.1694
6.93417
3.43354
0.565574
-1.76129
-3.62855
-5.10786
-6.2614
-7.1426
-7.79631
-8.25954
-8.56153
-8.72439
-8.76301
-8.68558
-8.49336
-8.18105
-7.73646
-7.14071
-6.36775
-5.38444
-4.14994
-2.6157
-0.724599
1.58899
4.40031
7.79392
11.8649
16.7178
22.4675
22.7607
16.696
11.5868
7.31622
3.77452
0.861886
-1.51219
-3.42808
-4.9568
-6.15994
-7.09043
-7.79271
-8.30337
-8.65128
-8.85804
-8.93811
-8.89905
-8.74151
-8.45938
-8.03959
-7.46216
-6.69982
-5.71797
-4.47419
-2.91798
-0.990317
1.3768
4.26063
7.74821
11.936
16.9302
22.8451
22.943
16.9228
11.8433
7.58854
4.05149
1.13356
-1.25386
-3.18997
-4.74439
-5.97775
-6.94195
-7.68065
-8.2296
-8.617
-8.86376
-8.9837
-8.9837
-8.86376
-8.617
-8.2296
-7.68065
-6.94195
-5.97775
-4.74439
-3.18997
-1.25386
1.13356
4.05149
7.58854
11.8433
16.9228
22.943
22.8451
16.9302
11.936
7.74821
4.26063
1.3768
-0.990317
-2.91798
-4.47419
-5.71797
-6.69982
-7.46216
-8.03959
-8.45938
-8.74151
-8.89905
-8.93811
-8.85804
-8.65128
-8.30337
-7.79271
-7.09043
-6.15994
-4.9568
-3.42808
-1.51219
0.861886
3.77452
7.31622
11.5868
16.696
22.7607
22.4675
16.7178
11.8649
7.79392
4.40031
1.58899
-0.724599
-2.6157
-4.14994
-5.38444
-6.36775
-7.14071
-7.73646
-8.18105
-8.49336
-8.68558
-8.76301
-8.72439
-8.56153
-8.25954
-7.79631
-7.1426
-6.2614
-5.10786
-3.62855
-1.76129
0.565574
3.43354
6.93417
11.1694
16.2509
22.2991
21.8121
16.2887
11.6319
7.72707
4.47024
1.76881
-0.459414
-2.28672
-3.77611
-4.98211
-5.951
-6.72165
-7.32541
-7.78691
-8.12375
-8.34716
-8.46158
-8.46517
-8.34926
-8.09867
-7.69106
-7.09715
-6.27983
-5.19435
-3.78723
-1.99638
0.250178
3.03416
6.44841
10.5962
15.5923
21.5608
20.883
15.6471
11.2416
7.55044
4.47191
1.9156
-0.197
-1.93496
-3.35778
-4.51706
-5.4563
-6.21207
-6.81366
-7.28405
-7.63942
-7.88995
-8.03923
-8.0849
-8.01792
-7.82306
-7.478
-6.95373
-6.21351
-5.21308
-3.89955
-2.2114
-0.0771923
2.58466
5.86721
9.87541
14.7266
20.5503
19.6866
14.8011
10.7005
7.26933
4.40771
2.02943
0.0600665
-1.56503
-2.90139
-3.99708
-4.89244
-5.62141
-6.21096
-6.68223
-7.04984
-7.32288
-7.50408
-7.59066
-7.57336
-7.4371
-7.1599
-6.71339
-6.06157
-5.16122
-3.96055
-2.39936
-0.407423
2.09566
5.20265
9.01889
13.6649
19.2751
18.2328
13.7612
10.0186
6.89037
4.28131
2.1103
0.30881
-1.18263
-2.41483
-3.43179
-4.27036
-4.96149
-5.52964
-5.9939
-6.36726
-6.65761
-6.86691
-6.99202
-7.02366
-6.94717
-6.74119
-6.37837
-5.82391
-5.03613
-3.96491
-2.55209
-0.729579
1.5808
4.47002
8.04299
12.4217
17.7465
16.537
12.5435
9.20862
6.42254
4.09668
2.15793
0.545025
-0.795217
-1.90814
-2.83335
-3.60377
-4.24718
-4.78523
-5.23485
-5.60725
-5.90914
-6.14171
-6.30162
-6.37977
-6.36215
-6.22842
-5.95264
-5.50165
-4.83579
-3.90726
-2.6606
-1.03089
1.05658
3.68921
6.96923
11.0186
15.9817
14.6214
11.1685
8.28719
5.87597
3.85803
2.17104
0.762841
-0.412261
-1.39387
-2.21666
-2.90947
-3.49659
-3.99668
-4.42434
-4.78889
-5.09588
-5.34579
-5.53521
-5.65545
-5.69347
-5.6303
-5.44182
-5.09705
-4.55886
-3.78227
-2.7153
-1.29689
0.542404
2.88449
5.82553
9.48391
14.0057
12.5185
9.6654
7.27463
5.26225
3.56886
2.14643
0.954127
-0.0461923
-0.887702
-1.60019
-2.20807
-2.73187
-3.18712
-3.58583
-3.93549
-4.24041
-4.50047
-4.71237
-4.86804
-4.95575
-4.95828
-4.85385
-4.61411
-4.20509
-3.58516
-2.70621
-1.51216
0.0605351
2.08485
4.64747
7.85673
11.8546
10.2748
8.07088
6.1952
4.59317
3.23072
2.07884
1.10766
0.287546
-0.408995
-1.00641
-1.52443
-1.97965
-2.38412
-2.74735
-3.07478
-3.36964
-3.63127
-3.85665
-4.03861
-4.167
-4.22682
-4.19904
-4.05868
-3.77535
-3.31157
-2.62356
-1.66014
-0.365353
1.32412
3.47829
6.18821
9.57996
7.95646
6.43361
5.07648
3.87886
2.84338
1.9594
1.20933
0.569372
0.0183056
-0.462786
-0.888804
-1.27189
-1.6208
-1.94218
-2.23977
-2.51557
-2.76868
-2.99642
-3.1928
-3.34954
-3.45419
-3.49109
-3.43901
-3.27225
-2.95784
-2.45727
-1.72448
-0.709504
0.638331
2.37071
4.54508
7.25554
5.65725
4.81309
3.94577
3.12825
2.40217
1.77772
1.24101
0.774944
0.364669
-0.00303969
-0.337475
-0.646775
-0.935944
-1.20935
-1.46879
-1.7155
-1.94826
-2.16507
-2.36117
-2.53039
-2.66318
-2.74745
-2.7667
-2.70012
-2.52104
-2.19645
-1.68677
-0.947091
0.0668591
1.38131
3.01281
4.98472
3.50938
3.27879
2.83083
2.34339
1.90535
1.52026
1.17938
0.872903
0.592306
0.331364
0.0852623
-0.149497
-0.375348
-0.594051
-0.806332
-1.01246
-1.21144
-1.40174
-1.58014
-1.74251
-1.88228
-1.99133
-2.0578
-2.0672
-1.99917
-1.82923
-1.52426
-1.04732
-0.355739
0.573178
1.69064
2.9148
1.69684
1.90568
1.74307
1.54374
1.35198
1.16791
0.991827
0.820263
0.653061
0.488443
0.326614
0.166546
0.00855516
-0.147977
-0.302541
-0.455261
-0.605134
-0.751452
-0.892238
-1.02534
-1.14705
-1.25275
-1.33571
-1.38703
-1.39475
-1.3423
-1.20881
-0.964697
-0.57846
-0.0124798
0.693562
1.24588
0.468311
0.724286
0.761063
0.762033
0.732294
0.685903
0.625922
0.557618
0.482873
0.404266
0.322808
0.239784
0.155684
0.0711399
-0.0135879
-0.0981233
-0.182172
-0.265296
-0.346881
-0.426096
-0.501607
-0.57174
-0.63378
-0.684459
-0.718435
-0.729418
-0.706802
-0.638619
-0.503244
-0.28337
0.0575358
0.252111
