# vtk DataFile Version 3.0
STAP++ Results
ASCII
DATASET UNSTRUCTURED_GRID
POINTS 49 float
0 0 0
1.33333 0 0
2.66667 0 0
4 0 0
5.33333 0 0
6.66667 0 0
8 0 0
0 1.33333 0
1.33333 1.33333 0
2.66667 1.33333 0
4 1.33333 0
5.33333 1.33333 0
6.66667 1.33333 0
8 1.33333 0
0 2.66667 0
1.33333 2.66667 0
2.66667 2.66667 0
4 2.66667 0
5.33333 2.66667 0
6.66667 2.66667 0
8 2.66667 0
0 4 0
1.33333 4 0
2.66667 4 0
4 4 0
5.33333 4 0
6.66667 4 0
8 4 0
0 5.33333 0
1.33333 5.33333 0
2.66667 5.33333 0
4 5.33333 0
5.33333 5.33333 0
6.66667 5.33333 0
8 5.33333 0
0 6.66667 0
1.33333 6.66667 0
2.66667 6.66667 0
4 6.66667 0
5.33333 6.66667 0
6.66667 6.66667 0
8 6.66667 0
0 8 0
1.33333 8 0
2.66667 8 0
4 8 0
5.33333 8 0
6.66667 8 0
8 8 0
CELLS 36 180
4 0 1 8 7
4 1 2 9 8
4 2 3 10 9
4 3 4 11 10
4 4 5 12 11
4 5 6 13 12
4 7 8 15 14
4 8 9 16 15
4 9 10 17 16
4 10 11 18 17
4 11 12 19 18
4 12 13 20 19
4 14 15 22 21
4 15 16 23 22
4 16 17 24 23
4 17 18 25 24
4 18 19 26 25
4 19 20 27 26
4 21 22 29 28
4 22 23 30 29
4 23 24 31 30
4 24 25 32 31
4 25 26 33 32
4 26 27 34 33
4 28 29 36 35
4 29 30 37 36
4 30 31 38 37
4 31 32 39 38
4 32 33 40 39
4 33 34 41 40
4 35 36 43 42
4 36 37 44 43
4 37 38 45 44
4 38 39 46 45
4 39 40 47 46
4 40 41 48 47
CELL_TYPES 36
9
9
9
9
9
9
9
9
9
9
9
9
9
9
9
9
9
9
9
9
9
9
9
9
9
9
9
9
9
9
9
9
9
9
9
9
POINT_DATA 49
VECTORS Displacement float
0 0 0
0 0 0
0 0 0
0 0 0
0 0 0
0 0 0
0 0 0
0 0 0
0 0 -3.53736e-05
0 0 -9.44458e-05
0 0 -0.000118145
0 0 -9.44458e-05
0 0 -3.53736e-05
0 0 0
0 0 0
0 0 -9.44458e-05
0 0 -0.000253313
0 0 -0.000317739
0 0 -0.000253313
0 0 -9.44458e-05
0 0 0
0 0 0
0 0 -0.000118145
0 0 -0.000317739
0 0 -0.000399191
0 0 -0.000317739
0 0 -0.000118145
0 0 0
0 0 0
0 0 -9.44458e-05
0 0 -0.000253313
0 0 -0.000317739
0 0 -0.000253313
0 0 -9.44458e-05
0 0 0
0 0 0
0 0 -3.53736e-05
0 0 -9.44458e-05
0 0 -0.000118145
0 0 -9.44458e-05
0 0 -3.53736e-05
0 0 0
0 0 0
0 0 0
0 0 0
0 0 0
0 0 0
0 0 0
0 0 0
CELL_DATA 36
SCALARS Stress float 1
LOOKUP_TABLE default
0
0
0
0
0
0
0.352282
0.369633
0.0895166
-0.236016
-0.441796
-0.13362
0.940536
0.998357
0.243376
-0.641601
-1.18387
-0.3568
1.17656
1.25745
0.307684
-0.811174
-1.48422
-0.446303
0.940534
0.998358
0.243378
-0.6416
-1.18387
-0.356802
0.352283
0.369632
0.0895161
-0.236016
-0.441796
-0.133619
