# vtk DataFile Version 3.0
STAP++ Results
ASCII
DATASET UNSTRUCTURED_GRID
POINTS 9 float
0 0 0
4 0 0
8 0 0
0 4 0
4 4 0
8 4 0
0 8 0
4 8 0
8 8 0
CELLS 4 20
4 0 1 4 3
4 1 2 5 4
4 3 4 7 6
4 4 5 8 7
CELL_TYPES 4
9
9
9
9
POINT_DATA 9
VECTORS Displacement float
0 0 0
0 0 0
0 0 0
0 0 0
0 0 -1.248e-08
0 0 0
0 0 0
0 0 0
0 0 0
CELL_DATA 4
SCALARS Stress float 1
LOOKUP_TABLE default
0
0
2.85714e-05
-2.85714e-05
