# vtk DataFile Version 3.0
STAP++ Results
ASCII
DATASET UNSTRUCTURED_GRID
POINTS 9 float
0 0 0
1 0 0
2.33 0 0
0 1 0
0.84 0.7 0
2 1.1 0
0.1 2.11 0
1 2 0
1.9 2.2 0
CELLS 4 20
4 0 1 4 3
4 1 2 5 4
4 3 4 7 6
4 4 5 8 7
CELL_TYPES 4
9
9
9
9
POINT_DATA 9
VECTORS Displacement float
0 0 0
0 0 -0.1
0 0 -0.233
0 0 0
0 0 -0.084
0 0 -0.2
0 0 -0.01
0 0 -0.1
0 0 -0.19
CELL_DATA 4
SCALARS Stress float 1
LOOKUP_TABLE default
1531.03
827.974
1011.37
873.792
