# vtk DataFile Version 3.0
STAP++ Results
ASCII
DATASET UNSTRUCTURED_GRID
POINTS 361 float
0 0 0
0.44444 0 0
0.88889 0 0
1.33333 0 0
1.77778 0 0
2.22222 0 0
2.66667 0 0
3.11111 0 0
3.55556 0 0
4 0 0
4.44444 0 0
4.88889 0 0
5.33333 0 0
5.77778 0 0
6.22222 0 0
6.66667 0 0
7.11111 0 0
7.55556 0 0
8 0 0
0 0.44444 0
0.44444 0.44444 0
0.88889 0.44444 0
1.33333 0.44444 0
1.77778 0.44444 0
2.22222 0.44444 0
2.66667 0.44444 0
3.11111 0.44444 0
3.55556 0.44444 0
4 0.44444 0
4.44444 0.44444 0
4.88889 0.44444 0
5.33333 0.44444 0
5.77778 0.44444 0
6.22222 0.44444 0
6.66667 0.44444 0
7.11111 0.44444 0
7.55556 0.44444 0
8 0.44444 0
0 0.88889 0
0.44444 0.88889 0
0.88889 0.88889 0
1.33333 0.88889 0
1.77778 0.88889 0
2.22222 0.88889 0
2.66667 0.88889 0
3.11111 0.88889 0
3.55556 0.88889 0
4 0.88889 0
4.44444 0.88889 0
4.88889 0.88889 0
5.33333 0.88889 0
5.77778 0.88889 0
6.22222 0.88889 0
6.66667 0.88889 0
7.11111 0.88889 0
7.55556 0.88889 0
8 0.88889 0
0 1.33333 0
0.44444 1.33333 0
0.88889 1.33333 0
1.33333 1.33333 0
1.77778 1.33333 0
2.22222 1.33333 0
2.66667 1.33333 0
3.11111 1.33333 0
3.55556 1.33333 0
4 1.33333 0
4.44444 1.33333 0
4.88889 1.33333 0
5.33333 1.33333 0
5.77778 1.33333 0
6.22222 1.33333 0
6.66667 1.33333 0
7.11111 1.33333 0
7.55556 1.33333 0
8 1.33333 0
0 1.77778 0
0.44444 1.77778 0
0.88889 1.77778 0
1.33333 1.77778 0
1.77778 1.77778 0
2.22222 1.77778 0
2.66667 1.77778 0
3.11111 1.77778 0
3.55556 1.77778 0
4 1.77778 0
4.44444 1.77778 0
4.88889 1.77778 0
5.33333 1.77778 0
5.77778 1.77778 0
6.22222 1.77778 0
6.66667 1.77778 0
7.11111 1.77778 0
7.55556 1.77778 0
8 1.77778 0
0 2.22222 0
0.44444 2.22222 0
0.88889 2.22222 0
1.33333 2.22222 0
1.77778 2.22222 0
2.22222 2.22222 0
2.66667 2.22222 0
3.11111 2.22222 0
3.55556 2.22222 0
4 2.22222 0
4.44444 2.22222 0
4.88889 2.22222 0
5.33333 2.22222 0
5.77778 2.22222 0
6.22222 2.22222 0
6.66667 2.22222 0
7.11111 2.22222 0
7.55556 2.22222 0
8 2.22222 0
0 2.66667 0
0.44444 2.66667 0
0.88889 2.66667 0
1.33333 2.66667 0
1.77778 2.66667 0
2.22222 2.66667 0
2.66667 2.66667 0
3.11111 2.66667 0
3.55556 2.66667 0
4 2.66667 0
4.44444 2.66667 0
4.88889 2.66667 0
5.33333 2.66667 0
5.77778 2.66667 0
6.22222 2.66667 0
6.66667 2.66667 0
7.11111 2.66667 0
7.55556 2.66667 0
8 2.66667 0
0 3.11111 0
0.44444 3.11111 0
0.88889 3.11111 0
1.33333 3.11111 0
1.77778 3.11111 0
2.22222 3.11111 0
2.66667 3.11111 0
3.11111 3.11111 0
3.55556 3.11111 0
4 3.11111 0
4.44444 3.11111 0
4.88889 3.11111 0
5.33333 3.11111 0
5.77778 3.11111 0
6.22222 3.11111 0
6.66667 3.11111 0
7.11111 3.11111 0
7.55556 3.11111 0
8 3.11111 0
0 3.55556 0
0.44444 3.55556 0
0.88889 3.55556 0
1.33333 3.55556 0
1.77778 3.55556 0
2.22222 3.55556 0
2.66667 3.55556 0
3.11111 3.55556 0
3.55556 3.55556 0
4 3.55556 0
4.44444 3.55556 0
4.88889 3.55556 0
5.33333 3.55556 0
5.77778 3.55556 0
6.22222 3.55556 0
6.66667 3.55556 0
7.11111 3.55556 0
7.55556 3.55556 0
8 3.55556 0
0 4 0
0.44444 4 0
0.88889 4 0
1.33333 4 0
1.77778 4 0
2.22222 4 0
2.66667 4 0
3.11111 4 0
3.55556 4 0
4 4 0
4.44444 4 0
4.88889 4 0
5.33333 4 0
5.77778 4 0
6.22222 4 0
6.66667 4 0
7.11111 4 0
7.55556 4 0
8 4 0
0 4.44444 0
0.44444 4.44444 0
0.88889 4.44444 0
1.33333 4.44444 0
1.77778 4.44444 0
2.22222 4.44444 0
2.66667 4.44444 0
3.11111 4.44444 0
3.55556 4.44444 0
4 4.44444 0
4.44444 4.44444 0
4.88889 4.44444 0
5.33333 4.44444 0
5.77778 4.44444 0
6.22222 4.44444 0
6.66667 4.44444 0
7.11111 4.44444 0
7.55556 4.44444 0
8 4.44444 0
0 4.88889 0
0.44444 4.88889 0
0.88889 4.88889 0
1.33333 4.88889 0
1.77778 4.88889 0
2.22222 4.88889 0
2.66667 4.88889 0
3.11111 4.88889 0
3.55556 4.88889 0
4 4.88889 0
4.44444 4.88889 0
4.88889 4.88889 0
5.33333 4.88889 0
5.77778 4.88889 0
6.22222 4.88889 0
6.66667 4.88889 0
7.11111 4.88889 0
7.55556 4.88889 0
8 4.88889 0
0 5.33333 0
0.44444 5.33333 0
0.88889 5.33333 0
1.33333 5.33333 0
1.77778 5.33333 0
2.22222 5.33333 0
2.66667 5.33333 0
3.11111 5.33333 0
3.55556 5.33333 0
4 5.33333 0
4.44444 5.33333 0
4.88889 5.33333 0
5.33333 5.33333 0
5.77778 5.33333 0
6.22222 5.33333 0
6.66667 5.33333 0
7.11111 5.33333 0
7.55556 5.33333 0
8 5.33333 0
0 5.77778 0
0.44444 5.77778 0
0.88889 5.77778 0
1.33333 5.77778 0
1.77778 5.77778 0
2.22222 5.77778 0
2.66667 5.77778 0
3.11111 5.77778 0
3.55556 5.77778 0
4 5.77778 0
4.44444 5.77778 0
4.88889 5.77778 0
5.33333 5.77778 0
5.77778 5.77778 0
6.22222 5.77778 0
6.66667 5.77778 0
7.11111 5.77778 0
7.55556 5.77778 0
8 5.77778 0
0 6.22222 0
0.44444 6.22222 0
0.88889 6.22222 0
1.33333 6.22222 0
1.77778 6.22222 0
2.22222 6.22222 0
2.66667 6.22222 0
3.11111 6.22222 0
3.55556 6.22222 0
4 6.22222 0
4.44444 6.22222 0
4.88889 6.22222 0
5.33333 6.22222 0
5.77778 6.22222 0
6.22222 6.22222 0
6.66667 6.22222 0
7.11111 6.22222 0
7.55556 6.22222 0
8 6.22222 0
0 6.66667 0
0.44444 6.66667 0
0.88889 6.66667 0
1.33333 6.66667 0
1.77778 6.66667 0
2.22222 6.66667 0
2.66667 6.66667 0
3.11111 6.66667 0
3.55556 6.66667 0
4 6.66667 0
4.44444 6.66667 0
4.88889 6.66667 0
5.33333 6.66667 0
5.77778 6.66667 0
6.22222 6.66667 0
6.66667 6.66667 0
7.11111 6.66667 0
7.55556 6.66667 0
8 6.66667 0
0 7.11111 0
0.44444 7.11111 0
0.88889 7.11111 0
1.33333 7.11111 0
1.77778 7.11111 0
2.22222 7.11111 0
2.66667 7.11111 0
3.11111 7.11111 0
3.55556 7.11111 0
4 7.11111 0
4.44444 7.11111 0
4.88889 7.11111 0
5.33333 7.11111 0
5.77778 7.11111 0
6.22222 7.11111 0
6.66667 7.11111 0
7.11111 7.11111 0
7.55556 7.11111 0
8 7.11111 0
0 7.55556 0
0.44444 7.55556 0
0.88889 7.55556 0
1.33333 7.55556 0
1.77778 7.55556 0
2.22222 7.55556 0
2.66667 7.55556 0
3.11111 7.55556 0
3.55556 7.55556 0
4 7.55556 0
4.44444 7.55556 0
4.88889 7.55556 0
5.33333 7.55556 0
5.77778 7.55556 0
6.22222 7.55556 0
6.66667 7.55556 0
7.11111 7.55556 0
7.55556 7.55556 0
8 7.55556 0
0 8 0
0.44444 8 0
0.88889 8 0
1.33333 8 0
1.77778 8 0
2.22222 8 0
2.66667 8 0
3.11111 8 0
3.55556 8 0
4 8 0
4.44444 8 0
4.88889 8 0
5.33333 8 0
5.77778 8 0
6.22222 8 0
6.66667 8 0
7.11111 8 0
7.55556 8 0
8 8 0
CELLS 324 1620
4 0 1 20 19
4 1 2 21 20
4 2 3 22 21
4 3 4 23 22
4 4 5 24 23
4 5 6 25 24
4 6 7 26 25
4 7 8 27 26
4 8 9 28 27
4 9 10 29 28
4 10 11 30 29
4 11 12 31 30
4 12 13 32 31
4 13 14 33 32
4 14 15 34 33
4 15 16 35 34
4 16 17 36 35
4 17 18 37 36
4 19 20 39 38
4 20 21 40 39
4 21 22 41 40
4 22 23 42 41
4 23 24 43 42
4 24 25 44 43
4 25 26 45 44
4 26 27 46 45
4 27 28 47 46
4 28 29 48 47
4 29 30 49 48
4 30 31 50 49
4 31 32 51 50
4 32 33 52 51
4 33 34 53 52
4 34 35 54 53
4 35 36 55 54
4 36 37 56 55
4 38 39 58 57
4 39 40 59 58
4 40 41 60 59
4 41 42 61 60
4 42 43 62 61
4 43 44 63 62
4 44 45 64 63
4 45 46 65 64
4 46 47 66 65
4 47 48 67 66
4 48 49 68 67
4 49 50 69 68
4 50 51 70 69
4 51 52 71 70
4 52 53 72 71
4 53 54 73 72
4 54 55 74 73
4 55 56 75 74
4 57 58 77 76
4 58 59 78 77
4 59 60 79 78
4 60 61 80 79
4 61 62 81 80
4 62 63 82 81
4 63 64 83 82
4 64 65 84 83
4 65 66 85 84
4 66 67 86 85
4 67 68 87 86
4 68 69 88 87
4 69 70 89 88
4 70 71 90 89
4 71 72 91 90
4 72 73 92 91
4 73 74 93 92
4 74 75 94 93
4 76 77 96 95
4 77 78 97 96
4 78 79 98 97
4 79 80 99 98
4 80 81 100 99
4 81 82 101 100
4 82 83 102 101
4 83 84 103 102
4 84 85 104 103
4 85 86 105 104
4 86 87 106 105
4 87 88 107 106
4 88 89 108 107
4 89 90 109 108
4 90 91 110 109
4 91 92 111 110
4 92 93 112 111
4 93 94 113 112
4 95 96 115 114
4 96 97 116 115
4 97 98 117 116
4 98 99 118 117
4 99 100 119 118
4 100 101 120 119
4 101 102 121 120
4 102 103 122 121
4 103 104 123 122
4 104 105 124 123
4 105 106 125 124
4 106 107 126 125
4 107 108 127 126
4 108 109 128 127
4 109 110 129 128
4 110 111 130 129
4 111 112 131 130
4 112 113 132 131
4 114 115 134 133
4 115 116 135 134
4 116 117 136 135
4 117 118 137 136
4 118 119 138 137
4 119 120 139 138
4 120 121 140 139
4 121 122 141 140
4 122 123 142 141
4 123 124 143 142
4 124 125 144 143
4 125 126 145 144
4 126 127 146 145
4 127 128 147 146
4 128 129 148 147
4 129 130 149 148
4 130 131 150 149
4 131 132 151 150
4 133 134 153 152
4 134 135 154 153
4 135 136 155 154
4 136 137 156 155
4 137 138 157 156
4 138 139 158 157
4 139 140 159 158
4 140 141 160 159
4 141 142 161 160
4 142 143 162 161
4 143 144 163 162
4 144 145 164 163
4 145 146 165 164
4 146 147 166 165
4 147 148 167 166
4 148 149 168 167
4 149 150 169 168
4 150 151 170 169
4 152 153 172 171
4 153 154 173 172
4 154 155 174 173
4 155 156 175 174
4 156 157 176 175
4 157 158 177 176
4 158 159 178 177
4 159 160 179 178
4 160 161 180 179
4 161 162 181 180
4 162 163 182 181
4 163 164 183 182
4 164 165 184 183
4 165 166 185 184
4 166 167 186 185
4 167 168 187 186
4 168 169 188 187
4 169 170 189 188
4 171 172 191 190
4 172 173 192 191
4 173 174 193 192
4 174 175 194 193
4 175 176 195 194
4 176 177 196 195
4 177 178 197 196
4 178 179 198 197
4 179 180 199 198
4 180 181 200 199
4 181 182 201 200
4 182 183 202 201
4 183 184 203 202
4 184 185 204 203
4 185 186 205 204
4 186 187 206 205
4 187 188 207 206
4 188 189 208 207
4 190 191 210 209
4 191 192 211 210
4 192 193 212 211
4 193 194 213 212
4 194 195 214 213
4 195 196 215 214
4 196 197 216 215
4 197 198 217 216
4 198 199 218 217
4 199 200 219 218
4 200 201 220 219
4 201 202 221 220
4 202 203 222 221
4 203 204 223 222
4 204 205 224 223
4 205 206 225 224
4 206 207 226 225
4 207 208 227 226
4 209 210 229 228
4 210 211 230 229
4 211 212 231 230
4 212 213 232 231
4 213 214 233 232
4 214 215 234 233
4 215 216 235 234
4 216 217 236 235
4 217 218 237 236
4 218 219 238 237
4 219 220 239 238
4 220 221 240 239
4 221 222 241 240
4 222 223 242 241
4 223 224 243 242
4 224 225 244 243
4 225 226 245 244
4 226 227 246 245
4 228 229 248 247
4 229 230 249 248
4 230 231 250 249
4 231 232 251 250
4 232 233 252 251
4 233 234 253 252
4 234 235 254 253
4 235 236 255 254
4 236 237 256 255
4 237 238 257 256
4 238 239 258 257
4 239 240 259 258
4 240 241 260 259
4 241 242 261 260
4 242 243 262 261
4 243 244 263 262
4 244 245 264 263
4 245 246 265 264
4 247 248 267 266
4 248 249 268 267
4 249 250 269 268
4 250 251 270 269
4 251 252 271 270
4 252 253 272 271
4 253 254 273 272
4 254 255 274 273
4 255 256 275 274
4 256 257 276 275
4 257 258 277 276
4 258 259 278 277
4 259 260 279 278
4 260 261 280 279
4 261 262 281 280
4 262 263 282 281
4 263 264 283 282
4 264 265 284 283
4 266 267 286 285
4 267 268 287 286
4 268 269 288 287
4 269 270 289 288
4 270 271 290 289
4 271 272 291 290
4 272 273 292 291
4 273 274 293 292
4 274 275 294 293
4 275 276 295 294
4 276 277 296 295
4 277 278 297 296
4 278 279 298 297
4 279 280 299 298
4 280 281 300 299
4 281 282 301 300
4 282 283 302 301
4 283 284 303 302
4 285 286 305 304
4 286 287 306 305
4 287 288 307 306
4 288 289 308 307
4 289 290 309 308
4 290 291 310 309
4 291 292 311 310
4 292 293 312 311
4 293 294 313 312
4 294 295 314 313
4 295 296 315 314
4 296 297 316 315
4 297 298 317 316
4 298 299 318 317
4 299 300 319 318
4 300 301 320 319
4 301 302 321 320
4 302 303 322 321
4 304 305 324 323
4 305 306 325 324
4 306 307 326 325
4 307 308 327 326
4 308 309 328 327
4 309 310 329 328
4 310 311 330 329
4 311 312 331 330
4 312 313 332 331
4 313 314 333 332
4 314 315 334 333
4 315 316 335 334
4 316 317 336 335
4 317 318 337 336
4 318 319 338 337
4 319 320 339 338
4 320 321 340 339
4 321 322 341 340
4 323 324 343 342
4 324 325 344 343
4 325 326 345 344
4 326 327 346 345
4 327 328 347 346
4 328 329 348 347
4 329 330 349 348
4 330 331 350 349
4 331 332 351 350
4 332 333 352 351
4 333 334 353 352
4 334 335 354 353
4 335 336 355 354
4 336 337 356 355
4 337 338 357 356
4 338 339 358 357
4 339 340 359 358
4 340 341 360 359
CELL_TYPES 324
9
9
9
9
9
9
9
9
9
9
9
9
9
9
9
9
9
9
9
9
9
9
9
9
9
9
9
9
9
9
9
9
9
9
9
9
9
9
9
9
9
9
9
9
9
9
9
9
9
9
9
9
9
9
9
9
9
9
9
9
9
9
9
9
9
9
9
9
9
9
9
9
9
9
9
9
9
9
9
9
9
9
9
9
9
9
9
9
9
9
9
9
9
9
9
9
9
9
9
9
9
9
9
9
9
9
9
9
9
9
9
9
9
9
9
9
9
9
9
9
9
9
9
9
9
9
9
9
9
9
9
9
9
9
9
9
9
9
9
9
9
9
9
9
9
9
9
9
9
9
9
9
9
9
9
9
9
9
9
9
9
9
9
9
9
9
9
9
9
9
9
9
9
9
9
9
9
9
9
9
9
9
9
9
9
9
9
9
9
9
9
9
9
9
9
9
9
9
9
9
9
9
9
9
9
9
9
9
9
9
9
9
9
9
9
9
9
9
9
9
9
9
9
9
9
9
9
9
9
9
9
9
9
9
9
9
9
9
9
9
9
9
9
9
9
9
9
9
9
9
9
9
9
9
9
9
9
9
9
9
9
9
9
9
9
9
9
9
9
9
9
9
9
9
9
9
9
9
9
9
9
9
9
9
9
9
9
9
9
9
9
9
9
9
9
9
9
9
9
9
9
9
9
9
9
9
9
9
9
9
9
9
9
9
9
9
9
9
9
9
9
9
9
9
POINT_DATA 361
VECTORS Displacement float
0 0 0
0 0 0
0 0 0
0 0 0
0 0 0
0 0 0
0 0 0
0 0 0
0 0 0
0 0 0
0 0 0
0 0 0
0 0 0
0 0 0
0 0 0
0 0 0
0 0 0
0 0 0
0 0 0
0 0 0
0 0 -8.02548e-07
0 0 -2.91183e-06
0 0 -5.64431e-06
0 0 -8.42138e-06
0 0 -1.09307e-05
0 0 -1.29931e-05
0 0 -1.45132e-05
0 0 -1.54403e-05
0 0 -1.57517e-05
0 0 -1.54403e-05
0 0 -1.45132e-05
0 0 -1.29931e-05
0 0 -1.09307e-05
0 0 -8.42138e-06
0 0 -5.64431e-06
0 0 -2.91183e-06
0 0 -8.02548e-07
0 0 0
0 0 0
0 0 -2.91183e-06
0 0 -1.03322e-05
0 0 -1.98367e-05
0 0 -2.96043e-05
0 0 -3.85038e-05
0 0 -4.58716e-05
0 0 -5.13273e-05
0 0 -5.46664e-05
0 0 -5.57891e-05
0 0 -5.46664e-05
0 0 -5.13273e-05
0 0 -4.58716e-05
0 0 -3.85038e-05
0 0 -2.96043e-05
0 0 -1.98367e-05
0 0 -1.03322e-05
0 0 -2.91183e-06
0 0 0
0 0 0
0 0 -5.64431e-06
0 0 -1.98367e-05
0 0 -3.79164e-05
0 0 -5.664e-05
0 0 -7.38475e-05
0 0 -8.81935e-05
0 0 -9.8873e-05
0 0 -0.000105431
0 0 -0.00010764
0 0 -0.000105431
0 0 -9.8873e-05
0 0 -8.81935e-05
0 0 -7.38475e-05
0 0 -5.664e-05
0 0 -3.79164e-05
0 0 -1.98367e-05
0 0 -5.64431e-06
0 0 0
0 0 0
0 0 -8.42138e-06
0 0 -2.96043e-05
0 0 -5.664e-05
0 0 -8.477e-05
0 0 -0.000110782
0 0 -0.000132587
0 0 -0.000148887
0 0 -0.000158925
0 0 -0.000162311
0 0 -0.000158925
0 0 -0.000148887
0 0 -0.000132587
0 0 -0.000110782
0 0 -8.477e-05
0 0 -5.664e-05
0 0 -2.96043e-05
0 0 -8.42138e-06
0 0 0
0 0 0
0 0 -1.09307e-05
0 0 -3.85038e-05
0 0 -7.38475e-05
0 0 -0.000110782
0 0 -0.000145083
0 0 -0.000173952
0 0 -0.0001956
0 0 -0.000208961
0 0 -0.000213473
0 0 -0.000208961
0 0 -0.0001956
0 0 -0.000173952
0 0 -0.000145083
0 0 -0.000110782
0 0 -7.38475e-05
0 0 -3.85038e-05
0 0 -1.09307e-05
0 0 0
0 0 0
0 0 -1.29931e-05
0 0 -4.58716e-05
0 0 -8.81935e-05
0 0 -0.000132587
0 0 -0.000173952
0 0 -0.000208864
0 0 -0.000235104
0 0 -0.000251324
0 0 -0.000256805
0 0 -0.000251324
0 0 -0.000235104
0 0 -0.000208864
0 0 -0.000173952
0 0 -0.000132587
0 0 -8.81935e-05
0 0 -4.58716e-05
0 0 -1.29931e-05
0 0 0
0 0 0
0 0 -1.45132e-05
0 0 -5.13273e-05
0 0 -9.8873e-05
0 0 -0.000148887
0 0 -0.0001956
0 0 -0.000235104
0 0 -0.000264841
0 0 -0.000283241
0 0 -0.000289462
0 0 -0.000283241
0 0 -0.000264841
0 0 -0.000235104
0 0 -0.0001956
0 0 -0.000148887
0 0 -9.8873e-05
0 0 -5.13273e-05
0 0 -1.45132e-05
0 0 0
0 0 0
0 0 -1.54403e-05
0 0 -5.46664e-05
0 0 -0.000105431
0 0 -0.000158925
0 0 -0.000208961
0 0 -0.000251324
0 0 -0.000283241
0 0 -0.000303002
0 0 -0.000309685
0 0 -0.000303002
0 0 -0.000283241
0 0 -0.000251324
0 0 -0.000208961
0 0 -0.000158925
0 0 -0.000105431
0 0 -5.46664e-05
0 0 -1.54403e-05
0 0 0
0 0 0
0 0 -1.57517e-05
0 0 -5.57891e-05
0 0 -0.00010764
0 0 -0.000162311
0 0 -0.000213473
0 0 -0.000256805
0 0 -0.000289462
0 0 -0.000309685
0 0 -0.000316526
0 0 -0.000309685
0 0 -0.000289462
0 0 -0.000256805
0 0 -0.000213473
0 0 -0.000162311
0 0 -0.00010764
0 0 -5.57891e-05
0 0 -1.57517e-05
0 0 0
0 0 0
0 0 -1.54403e-05
0 0 -5.46664e-05
0 0 -0.000105431
0 0 -0.000158925
0 0 -0.000208961
0 0 -0.000251324
0 0 -0.000283241
0 0 -0.000303002
0 0 -0.000309685
0 0 -0.000303002
0 0 -0.000283241
0 0 -0.000251324
0 0 -0.000208961
0 0 -0.000158925
0 0 -0.000105431
0 0 -5.46664e-05
0 0 -1.54403e-05
0 0 0
0 0 0
0 0 -1.45132e-05
0 0 -5.13273e-05
0 0 -9.8873e-05
0 0 -0.000148887
0 0 -0.0001956
0 0 -0.000235104
0 0 -0.000264841
0 0 -0.000283241
0 0 -0.000289462
0 0 -0.000283241
0 0 -0.000264841
0 0 -0.000235104
0 0 -0.0001956
0 0 -0.000148887
0 0 -9.8873e-05
0 0 -5.13273e-05
0 0 -1.45132e-05
0 0 0
0 0 0
0 0 -1.29931e-05
0 0 -4.58716e-05
0 0 -8.81935e-05
0 0 -0.000132587
0 0 -0.000173952
0 0 -0.000208864
0 0 -0.000235104
0 0 -0.000251324
0 0 -0.000256805
0 0 -0.000251324
0 0 -0.000235104
0 0 -0.000208864
0 0 -0.000173952
0 0 -0.000132587
0 0 -8.81935e-05
0 0 -4.58716e-05
0 0 -1.29931e-05
0 0 0
0 0 0
0 0 -1.09307e-05
0 0 -3.85038e-05
0 0 -7.38475e-05
0 0 -0.000110782
0 0 -0.000145083
0 0 -0.000173952
0 0 -0.0001956
0 0 -0.000208961
0 0 -0.000213473
0 0 -0.000208961
0 0 -0.0001956
0 0 -0.000173952
0 0 -0.000145083
0 0 -0.000110782
0 0 -7.38475e-05
0 0 -3.85038e-05
0 0 -1.09307e-05
0 0 0
0 0 0
0 0 -8.42138e-06
0 0 -2.96043e-05
0 0 -5.664e-05
0 0 -8.477e-05
0 0 -0.000110782
0 0 -0.000132587
0 0 -0.000148887
0 0 -0.000158925
0 0 -0.000162311
0 0 -0.000158925
0 0 -0.000148887
0 0 -0.000132587
0 0 -0.000110782
0 0 -8.477e-05
0 0 -5.664e-05
0 0 -2.96043e-05
0 0 -8.42138e-06
0 0 0
0 0 0
0 0 -5.64431e-06
0 0 -1.98367e-05
0 0 -3.79164e-05
0 0 -5.664e-05
0 0 -7.38475e-05
0 0 -8.81935e-05
0 0 -9.8873e-05
0 0 -0.000105431
0 0 -0.00010764
0 0 -0.000105431
0 0 -9.8873e-05
0 0 -8.81935e-05
0 0 -7.38475e-05
0 0 -5.664e-05
0 0 -3.79164e-05
0 0 -1.98367e-05
0 0 -5.64431e-06
0 0 0
0 0 0
0 0 -2.91183e-06
0 0 -1.03322e-05
0 0 -1.98367e-05
0 0 -2.96043e-05
0 0 -3.85038e-05
0 0 -4.58716e-05
0 0 -5.13273e-05
0 0 -5.46664e-05
0 0 -5.57891e-05
0 0 -5.46664e-05
0 0 -5.13273e-05
0 0 -4.58716e-05
0 0 -3.85038e-05
0 0 -2.96043e-05
0 0 -1.98367e-05
0 0 -1.03322e-05
0 0 -2.91183e-06
0 0 0
0 0 0
0 0 -8.02548e-07
0 0 -2.91183e-06
0 0 -5.64431e-06
0 0 -8.42138e-06
0 0 -1.09307e-05
0 0 -1.29931e-05
0 0 -1.45132e-05
0 0 -1.54403e-05
0 0 -1.57517e-05
0 0 -1.54403e-05
0 0 -1.45132e-05
0 0 -1.29931e-05
0 0 -1.09307e-05
0 0 -8.42138e-06
0 0 -5.64431e-06
0 0 -2.91183e-06
0 0 -8.02548e-07
0 0 0
0 0 0
0 0 0
0 0 0
0 0 0
0 0 0
0 0 0
0 0 0
0 0 0
0 0 0
0 0 0
0 0 0
0 0 0
0 0 0
0 0 0
0 0 0
0 0 0
0 0 0
0 0 0
0 0 0
CELL_DATA 324
SCALARS Stress float 1
LOOKUP_TABLE default
0
0
0
0
0
0
0
0
0
0
0
0
0
0
0
0
0
0
0.0388732
0.0574867
0.0596235
0.0551364
0.046335
0.0354268
0.0232919
0.0106309
-0.00225028
-0.0150814
-0.0275766
-0.0393468
-0.0495646
-0.0570705
-0.0593021
-0.0529798
-0.0294332
0.00580086
0.140981
0.197299
0.209403
0.195005
0.165482
0.127086
0.0839575
0.0383799
-0.00809469
-0.0543597
-0.0992186
-0.140869
-0.176525
-0.20126
-0.207502
-0.18227
-0.108482
0.0209867
0.273277
0.373237
0.399856
0.376357
0.321818
0.248718
0.164932
0.0755951
-0.0159326
-0.106963
-0.194658
-0.275161
-0.342458
-0.387287
-0.395212
-0.345191
-0.211608
0.04068
0.407729
0.557205
0.599129
0.567958
0.488704
0.379497
0.252537
0.115974
-0.0244146
-0.163942
-0.29769
-0.419183
-0.519039
-0.583222
-0.591233
-0.51499
-0.315708
0.0606905
0.52922
0.727065
0.78547
0.748005
0.646547
0.50389
0.336179
0.154632
-0.032535
-0.218449
-0.395949
-0.55595
-0.68573
-0.766983
-0.773998
-0.671012
-0.409178
0.0787758
0.629079
0.86918
0.942991
0.901312
0.781488
0.610647
0.40817
0.187963
-0.0395245
-0.265397
-0.480428
-0.673172
-0.828021
-0.923133
-0.928051
-0.801063
-0.485683
0.0936421
0.702672
0.975221
1.06151
1.01728
0.883967
0.691911
0.463077
0.213411
-0.0448637
-0.301235
-0.54483
-0.762338
-0.935965
-1.04106
-1.04371
-0.897811
-0.541826
0.104596
0.747566
1.0404
1.13481
1.08928
0.947756
0.742595
0.497356
0.229315
-0.0481952
-0.323616
-0.585013
-0.81791
-1.00309
-1.11419
-1.11512
-0.957169
-0.57604
0.111282
0.762649
1.0624
1.15957
1.11366
0.969384
0.75979
0.508994
0.234709
-0.0493333
-0.331224
-0.598666
-0.836771
-1.02586
-1.13895
-1.13923
-0.977173
-0.587476
0.113533
0.747557
1.04039
1.13481
1.08928
0.947758
0.742598
0.49736
0.229319
-0.048191
-0.323612
-0.585009
-0.817907
-1.00309
-1.11419
-1.11512
-0.957171
-0.576045
0.111272
0.702681
0.975226
1.06151
1.01728
0.883966
0.691908
0.463074
0.213408
-0.0448676
-0.301239
-0.544833
-0.762341
-0.935968
-1.04106
-1.04371
-0.897809
-0.541821
0.104605
0.629071
0.869176
0.942989
0.901313
0.78149
0.61065
0.408173
0.187967
-0.0395211
-0.265394
-0.480425
-0.673169
-0.828018
-0.923132
-0.928051
-0.801065
-0.485687
0.093634
0.529227
0.727069
0.785472
0.748005
0.646546
0.503888
0.336176
0.154629
-0.0325378
-0.218452
-0.395952
-0.555952
-0.685732
-0.766985
-0.773999
-0.67101
-0.409174
0.0787826
0.407724
0.557202
0.599128
0.567958
0.488705
0.379498
0.252538
0.115976
-0.0244125
-0.16394
-0.297688
-0.419182
-0.519038
-0.583221
-0.591232
-0.514991
-0.315711
0.0606852
0.273281
0.373239
0.399856
0.376357
0.321817
0.248717
0.164931
0.0755938
-0.015934
-0.106965
-0.194659
-0.275162
-0.342459
-0.387288
-0.395212
-0.345191
-0.211606
0.0406835
0.140979
0.197298
0.209403
0.195005
0.165482
0.127087
0.0839581
0.0383806
-0.00809399
-0.054359
-0.0992179
-0.140869
-0.176524
-0.201259
-0.207501
-0.182271
-0.108483
0.0209849
0.0388737
0.057487
0.0596235
0.0551363
0.0463349
0.0354266
0.0232917
0.0106307
-0.00225047
-0.0150816
-0.0275768
-0.039347
-0.0495648
-0.0570706
-0.0593021
-0.0529797
-0.0294329
0.00580136
