# vtk DataFile Version 3.0
STAP++ Results
ASCII
DATASET UNSTRUCTURED_GRID
POINTS 25 float
0 0 0
1 0 0
2 0 0
3 0 0
4 0 0
0 1 0
1 1 0
2 1 0
3 1 0
4 1 0
0 2 0
1 2 0
2 2 0
3 2 0
4 2 0
0 3 0
1 3 0
2 3 0
3 3 0
4 3 0
0 4 0
1 4 0
2 4 0
3 4 0
4 4 0
CELLS 16 80
4 0 1 6 5
4 1 2 7 6
4 2 3 8 7
4 3 4 9 8
4 5 6 11 10
4 6 7 12 11
4 7 8 13 12
4 8 9 14 13
4 10 11 16 15
4 11 12 17 16
4 12 13 18 17
4 13 14 19 18
4 15 16 21 20
4 16 17 22 21
4 17 18 23 22
4 18 19 24 23
CELL_TYPES 16
9
9
9
9
9
9
9
9
9
9
9
9
9
9
9
9
POINT_DATA 25
VECTORS Displacement float
0 0 0
0 0 0
0 0 0
0 0 0
0 0 0
0 0 0
0 0 -4.23389e-06
0 0 -8.4674e-06
0 0 -4.23389e-06
0 0 0
0 0 0
0 0 -8.4674e-06
0 0 -1.69324e-05
0 0 -8.4674e-06
0 0 0
0 0 0
0 0 -4.23389e-06
0 0 -8.4674e-06
0 0 -4.23389e-06
0 0 0
0 0 0
0 0 0
0 0 0
0 0 0
0 0 0
CELL_DATA 16
SCALARS Stress float 1
LOOKUP_TABLE default
0
0
0
0
0.054281
-0.100786
-0.054303
0.100808
0.155016
-0.155016
-0.155016
0.155016
0.100808
-0.054303
-0.100786
0.054281
