# vtk DataFile Version 3.0
STAP++ Results
ASCII
DATASET UNSTRUCTURED_GRID
POINTS 441 float
0 0 0
0.4 0 0
0.8 0 0
1.2 0 0
1.6 0 0
2 0 0
2.4 0 0
2.8 0 0
3.2 0 0
3.6 0 0
4 0 0
4.4 0 0
4.8 0 0
5.2 0 0
5.6 0 0
6 0 0
6.4 0 0
6.8 0 0
7.2 0 0
7.6 0 0
8 0 0
0 0.4 0
0.4 0.4 0
0.8 0.4 0
1.2 0.4 0
1.6 0.4 0
2 0.4 0
2.4 0.4 0
2.8 0.4 0
3.2 0.4 0
3.6 0.4 0
4 0.4 0
4.4 0.4 0
4.8 0.4 0
5.2 0.4 0
5.6 0.4 0
6 0.4 0
6.4 0.4 0
6.8 0.4 0
7.2 0.4 0
7.6 0.4 0
8 0.4 0
0 0.8 0
0.4 0.8 0
0.8 0.8 0
1.2 0.8 0
1.6 0.8 0
2 0.8 0
2.4 0.8 0
2.8 0.8 0
3.2 0.8 0
3.6 0.8 0
4 0.8 0
4.4 0.8 0
4.8 0.8 0
5.2 0.8 0
5.6 0.8 0
6 0.8 0
6.4 0.8 0
6.8 0.8 0
7.2 0.8 0
7.6 0.8 0
8 0.8 0
0 1.2 0
0.4 1.2 0
0.8 1.2 0
1.2 1.2 0
1.6 1.2 0
2 1.2 0
2.4 1.2 0
2.8 1.2 0
3.2 1.2 0
3.6 1.2 0
4 1.2 0
4.4 1.2 0
4.8 1.2 0
5.2 1.2 0
5.6 1.2 0
6 1.2 0
6.4 1.2 0
6.8 1.2 0
7.2 1.2 0
7.6 1.2 0
8 1.2 0
0 1.6 0
0.4 1.6 0
0.8 1.6 0
1.2 1.6 0
1.6 1.6 0
2 1.6 0
2.4 1.6 0
2.8 1.6 0
3.2 1.6 0
3.6 1.6 0
4 1.6 0
4.4 1.6 0
4.8 1.6 0
5.2 1.6 0
5.6 1.6 0
6 1.6 0
6.4 1.6 0
6.8 1.6 0
7.2 1.6 0
7.6 1.6 0
8 1.6 0
0 2 0
0.4 2 0
0.8 2 0
1.2 2 0
1.6 2 0
2 2 0
2.4 2 0
2.8 2 0
3.2 2 0
3.6 2 0
4 2 0
4.4 2 0
4.8 2 0
5.2 2 0
5.6 2 0
6 2 0
6.4 2 0
6.8 2 0
7.2 2 0
7.6 2 0
8 2 0
0 2.4 0
0.4 2.4 0
0.8 2.4 0
1.2 2.4 0
1.6 2.4 0
2 2.4 0
2.4 2.4 0
2.8 2.4 0
3.2 2.4 0
3.6 2.4 0
4 2.4 0
4.4 2.4 0
4.8 2.4 0
5.2 2.4 0
5.6 2.4 0
6 2.4 0
6.4 2.4 0
6.8 2.4 0
7.2 2.4 0
7.6 2.4 0
8 2.4 0
0 2.8 0
0.4 2.8 0
0.8 2.8 0
1.2 2.8 0
1.6 2.8 0
2 2.8 0
2.4 2.8 0
2.8 2.8 0
3.2 2.8 0
3.6 2.8 0
4 2.8 0
4.4 2.8 0
4.8 2.8 0
5.2 2.8 0
5.6 2.8 0
6 2.8 0
6.4 2.8 0
6.8 2.8 0
7.2 2.8 0
7.6 2.8 0
8 2.8 0
0 3.2 0
0.4 3.2 0
0.8 3.2 0
1.2 3.2 0
1.6 3.2 0
2 3.2 0
2.4 3.2 0
2.8 3.2 0
3.2 3.2 0
3.6 3.2 0
4 3.2 0
4.4 3.2 0
4.8 3.2 0
5.2 3.2 0
5.6 3.2 0
6 3.2 0
6.4 3.2 0
6.8 3.2 0
7.2 3.2 0
7.6 3.2 0
8 3.2 0
0 3.6 0
0.4 3.6 0
0.8 3.6 0
1.2 3.6 0
1.6 3.6 0
2 3.6 0
2.4 3.6 0
2.8 3.6 0
3.2 3.6 0
3.6 3.6 0
4 3.6 0
4.4 3.6 0
4.8 3.6 0
5.2 3.6 0
5.6 3.6 0
6 3.6 0
6.4 3.6 0
6.8 3.6 0
7.2 3.6 0
7.6 3.6 0
8 3.6 0
0 4 0
0.4 4 0
0.8 4 0
1.2 4 0
1.6 4 0
2 4 0
2.4 4 0
2.8 4 0
3.2 4 0
3.6 4 0
4 4 0
4.4 4 0
4.8 4 0
5.2 4 0
5.6 4 0
6 4 0
6.4 4 0
6.8 4 0
7.2 4 0
7.6 4 0
8 4 0
0 4.4 0
0.4 4.4 0
0.8 4.4 0
1.2 4.4 0
1.6 4.4 0
2 4.4 0
2.4 4.4 0
2.8 4.4 0
3.2 4.4 0
3.6 4.4 0
4 4.4 0
4.4 4.4 0
4.8 4.4 0
5.2 4.4 0
5.6 4.4 0
6 4.4 0
6.4 4.4 0
6.8 4.4 0
7.2 4.4 0
7.6 4.4 0
8 4.4 0
0 4.8 0
0.4 4.8 0
0.8 4.8 0
1.2 4.8 0
1.6 4.8 0
2 4.8 0
2.4 4.8 0
2.8 4.8 0
3.2 4.8 0
3.6 4.8 0
4 4.8 0
4.4 4.8 0
4.8 4.8 0
5.2 4.8 0
5.6 4.8 0
6 4.8 0
6.4 4.8 0
6.8 4.8 0
7.2 4.8 0
7.6 4.8 0
8 4.8 0
0 5.2 0
0.4 5.2 0
0.8 5.2 0
1.2 5.2 0
1.6 5.2 0
2 5.2 0
2.4 5.2 0
2.8 5.2 0
3.2 5.2 0
3.6 5.2 0
4 5.2 0
4.4 5.2 0
4.8 5.2 0
5.2 5.2 0
5.6 5.2 0
6 5.2 0
6.4 5.2 0
6.8 5.2 0
7.2 5.2 0
7.6 5.2 0
8 5.2 0
0 5.6 0
0.4 5.6 0
0.8 5.6 0
1.2 5.6 0
1.6 5.6 0
2 5.6 0
2.4 5.6 0
2.8 5.6 0
3.2 5.6 0
3.6 5.6 0
4 5.6 0
4.4 5.6 0
4.8 5.6 0
5.2 5.6 0
5.6 5.6 0
6 5.6 0
6.4 5.6 0
6.8 5.6 0
7.2 5.6 0
7.6 5.6 0
8 5.6 0
0 6 0
0.4 6 0
0.8 6 0
1.2 6 0
1.6 6 0
2 6 0
2.4 6 0
2.8 6 0
3.2 6 0
3.6 6 0
4 6 0
4.4 6 0
4.8 6 0
5.2 6 0
5.6 6 0
6 6 0
6.4 6 0
6.8 6 0
7.2 6 0
7.6 6 0
8 6 0
0 6.4 0
0.4 6.4 0
0.8 6.4 0
1.2 6.4 0
1.6 6.4 0
2 6.4 0
2.4 6.4 0
2.8 6.4 0
3.2 6.4 0
3.6 6.4 0
4 6.4 0
4.4 6.4 0
4.8 6.4 0
5.2 6.4 0
5.6 6.4 0
6 6.4 0
6.4 6.4 0
6.8 6.4 0
7.2 6.4 0
7.6 6.4 0
8 6.4 0
0 6.8 0
0.4 6.8 0
0.8 6.8 0
1.2 6.8 0
1.6 6.8 0
2 6.8 0
2.4 6.8 0
2.8 6.8 0
3.2 6.8 0
3.6 6.8 0
4 6.8 0
4.4 6.8 0
4.8 6.8 0
5.2 6.8 0
5.6 6.8 0
6 6.8 0
6.4 6.8 0
6.8 6.8 0
7.2 6.8 0
7.6 6.8 0
8 6.8 0
0 7.2 0
0.4 7.2 0
0.8 7.2 0
1.2 7.2 0
1.6 7.2 0
2 7.2 0
2.4 7.2 0
2.8 7.2 0
3.2 7.2 0
3.6 7.2 0
4 7.2 0
4.4 7.2 0
4.8 7.2 0
5.2 7.2 0
5.6 7.2 0
6 7.2 0
6.4 7.2 0
6.8 7.2 0
7.2 7.2 0
7.6 7.2 0
8 7.2 0
0 7.6 0
0.4 7.6 0
0.8 7.6 0
1.2 7.6 0
1.6 7.6 0
2 7.6 0
2.4 7.6 0
2.8 7.6 0
3.2 7.6 0
3.6 7.6 0
4 7.6 0
4.4 7.6 0
4.8 7.6 0
5.2 7.6 0
5.6 7.6 0
6 7.6 0
6.4 7.6 0
6.8 7.6 0
7.2 7.6 0
7.6 7.6 0
8 7.6 0
0 8 0
0.4 8 0
0.8 8 0
1.2 8 0
1.6 8 0
2 8 0
2.4 8 0
2.8 8 0
3.2 8 0
3.6 8 0
4 8 0
4.4 8 0
4.8 8 0
5.2 8 0
5.6 8 0
6 8 0
6.4 8 0
6.8 8 0
7.2 8 0
7.6 8 0
8 8 0
CELLS 400 2000
4 0 1 22 21
4 1 2 23 22
4 2 3 24 23
4 3 4 25 24
4 4 5 26 25
4 5 6 27 26
4 6 7 28 27
4 7 8 29 28
4 8 9 30 29
4 9 10 31 30
4 10 11 32 31
4 11 12 33 32
4 12 13 34 33
4 13 14 35 34
4 14 15 36 35
4 15 16 37 36
4 16 17 38 37
4 17 18 39 38
4 18 19 40 39
4 19 20 41 40
4 21 22 43 42
4 22 23 44 43
4 23 24 45 44
4 24 25 46 45
4 25 26 47 46
4 26 27 48 47
4 27 28 49 48
4 28 29 50 49
4 29 30 51 50
4 30 31 52 51
4 31 32 53 52
4 32 33 54 53
4 33 34 55 54
4 34 35 56 55
4 35 36 57 56
4 36 37 58 57
4 37 38 59 58
4 38 39 60 59
4 39 40 61 60
4 40 41 62 61
4 42 43 64 63
4 43 44 65 64
4 44 45 66 65
4 45 46 67 66
4 46 47 68 67
4 47 48 69 68
4 48 49 70 69
4 49 50 71 70
4 50 51 72 71
4 51 52 73 72
4 52 53 74 73
4 53 54 75 74
4 54 55 76 75
4 55 56 77 76
4 56 57 78 77
4 57 58 79 78
4 58 59 80 79
4 59 60 81 80
4 60 61 82 81
4 61 62 83 82
4 63 64 85 84
4 64 65 86 85
4 65 66 87 86
4 66 67 88 87
4 67 68 89 88
4 68 69 90 89
4 69 70 91 90
4 70 71 92 91
4 71 72 93 92
4 72 73 94 93
4 73 74 95 94
4 74 75 96 95
4 75 76 97 96
4 76 77 98 97
4 77 78 99 98
4 78 79 100 99
4 79 80 101 100
4 80 81 102 101
4 81 82 103 102
4 82 83 104 103
4 84 85 106 105
4 85 86 107 106
4 86 87 108 107
4 87 88 109 108
4 88 89 110 109
4 89 90 111 110
4 90 91 112 111
4 91 92 113 112
4 92 93 114 113
4 93 94 115 114
4 94 95 116 115
4 95 96 117 116
4 96 97 118 117
4 97 98 119 118
4 98 99 120 119
4 99 100 121 120
4 100 101 122 121
4 101 102 123 122
4 102 103 124 123
4 103 104 125 124
4 105 106 127 126
4 106 107 128 127
4 107 108 129 128
4 108 109 130 129
4 109 110 131 130
4 110 111 132 131
4 111 112 133 132
4 112 113 134 133
4 113 114 135 134
4 114 115 136 135
4 115 116 137 136
4 116 117 138 137
4 117 118 139 138
4 118 119 140 139
4 119 120 141 140
4 120 121 142 141
4 121 122 143 142
4 122 123 144 143
4 123 124 145 144
4 124 125 146 145
4 126 127 148 147
4 127 128 149 148
4 128 129 150 149
4 129 130 151 150
4 130 131 152 151
4 131 132 153 152
4 132 133 154 153
4 133 134 155 154
4 134 135 156 155
4 135 136 157 156
4 136 137 158 157
4 137 138 159 158
4 138 139 160 159
4 139 140 161 160
4 140 141 162 161
4 141 142 163 162
4 142 143 164 163
4 143 144 165 164
4 144 145 166 165
4 145 146 167 166
4 147 148 169 168
4 148 149 170 169
4 149 150 171 170
4 150 151 172 171
4 151 152 173 172
4 152 153 174 173
4 153 154 175 174
4 154 155 176 175
4 155 156 177 176
4 156 157 178 177
4 157 158 179 178
4 158 159 180 179
4 159 160 181 180
4 160 161 182 181
4 161 162 183 182
4 162 163 184 183
4 163 164 185 184
4 164 165 186 185
4 165 166 187 186
4 166 167 188 187
4 168 169 190 189
4 169 170 191 190
4 170 171 192 191
4 171 172 193 192
4 172 173 194 193
4 173 174 195 194
4 174 175 196 195
4 175 176 197 196
4 176 177 198 197
4 177 178 199 198
4 178 179 200 199
4 179 180 201 200
4 180 181 202 201
4 181 182 203 202
4 182 183 204 203
4 183 184 205 204
4 184 185 206 205
4 185 186 207 206
4 186 187 208 207
4 187 188 209 208
4 189 190 211 210
4 190 191 212 211
4 191 192 213 212
4 192 193 214 213
4 193 194 215 214
4 194 195 216 215
4 195 196 217 216
4 196 197 218 217
4 197 198 219 218
4 198 199 220 219
4 199 200 221 220
4 200 201 222 221
4 201 202 223 222
4 202 203 224 223
4 203 204 225 224
4 204 205 226 225
4 205 206 227 226
4 206 207 228 227
4 207 208 229 228
4 208 209 230 229
4 210 211 232 231
4 211 212 233 232
4 212 213 234 233
4 213 214 235 234
4 214 215 236 235
4 215 216 237 236
4 216 217 238 237
4 217 218 239 238
4 218 219 240 239
4 219 220 241 240
4 220 221 242 241
4 221 222 243 242
4 222 223 244 243
4 223 224 245 244
4 224 225 246 245
4 225 226 247 246
4 226 227 248 247
4 227 228 249 248
4 228 229 250 249
4 229 230 251 250
4 231 232 253 252
4 232 233 254 253
4 233 234 255 254
4 234 235 256 255
4 235 236 257 256
4 236 237 258 257
4 237 238 259 258
4 238 239 260 259
4 239 240 261 260
4 240 241 262 261
4 241 242 263 262
4 242 243 264 263
4 243 244 265 264
4 244 245 266 265
4 245 246 267 266
4 246 247 268 267
4 247 248 269 268
4 248 249 270 269
4 249 250 271 270
4 250 251 272 271
4 252 253 274 273
4 253 254 275 274
4 254 255 276 275
4 255 256 277 276
4 256 257 278 277
4 257 258 279 278
4 258 259 280 279
4 259 260 281 280
4 260 261 282 281
4 261 262 283 282
4 262 263 284 283
4 263 264 285 284
4 264 265 286 285
4 265 266 287 286
4 266 267 288 287
4 267 268 289 288
4 268 269 290 289
4 269 270 291 290
4 270 271 292 291
4 271 272 293 292
4 273 274 295 294
4 274 275 296 295
4 275 276 297 296
4 276 277 298 297
4 277 278 299 298
4 278 279 300 299
4 279 280 301 300
4 280 281 302 301
4 281 282 303 302
4 282 283 304 303
4 283 284 305 304
4 284 285 306 305
4 285 286 307 306
4 286 287 308 307
4 287 288 309 308
4 288 289 310 309
4 289 290 311 310
4 290 291 312 311
4 291 292 313 312
4 292 293 314 313
4 294 295 316 315
4 295 296 317 316
4 296 297 318 317
4 297 298 319 318
4 298 299 320 319
4 299 300 321 320
4 300 301 322 321
4 301 302 323 322
4 302 303 324 323
4 303 304 325 324
4 304 305 326 325
4 305 306 327 326
4 306 307 328 327
4 307 308 329 328
4 308 309 330 329
4 309 310 331 330
4 310 311 332 331
4 311 312 333 332
4 312 313 334 333
4 313 314 335 334
4 315 316 337 336
4 316 317 338 337
4 317 318 339 338
4 318 319 340 339
4 319 320 341 340
4 320 321 342 341
4 321 322 343 342
4 322 323 344 343
4 323 324 345 344
4 324 325 346 345
4 325 326 347 346
4 326 327 348 347
4 327 328 349 348
4 328 329 350 349
4 329 330 351 350
4 330 331 352 351
4 331 332 353 352
4 332 333 354 353
4 333 334 355 354
4 334 335 356 355
4 336 337 358 357
4 337 338 359 358
4 338 339 360 359
4 339 340 361 360
4 340 341 362 361
4 341 342 363 362
4 342 343 364 363
4 343 344 365 364
4 344 345 366 365
4 345 346 367 366
4 346 347 368 367
4 347 348 369 368
4 348 349 370 369
4 349 350 371 370
4 350 351 372 371
4 351 352 373 372
4 352 353 374 373
4 353 354 375 374
4 354 355 376 375
4 355 356 377 376
4 357 358 379 378
4 358 359 380 379
4 359 360 381 380
4 360 361 382 381
4 361 362 383 382
4 362 363 384 383
4 363 364 385 384
4 364 365 386 385
4 365 366 387 386
4 366 367 388 387
4 367 368 389 388
4 368 369 390 389
4 369 370 391 390
4 370 371 392 391
4 371 372 393 392
4 372 373 394 393
4 373 374 395 394
4 374 375 396 395
4 375 376 397 396
4 376 377 398 397
4 378 379 400 399
4 379 380 401 400
4 380 381 402 401
4 381 382 403 402
4 382 383 404 403
4 383 384 405 404
4 384 385 406 405
4 385 386 407 406
4 386 387 408 407
4 387 388 409 408
4 388 389 410 409
4 389 390 411 410
4 390 391 412 411
4 391 392 413 412
4 392 393 414 413
4 393 394 415 414
4 394 395 416 415
4 395 396 417 416
4 396 397 418 417
4 397 398 419 418
4 399 400 421 420
4 400 401 422 421
4 401 402 423 422
4 402 403 424 423
4 403 404 425 424
4 404 405 426 425
4 405 406 427 426
4 406 407 428 427
4 407 408 429 428
4 408 409 430 429
4 409 410 431 430
4 410 411 432 431
4 411 412 433 432
4 412 413 434 433
4 413 414 435 434
4 414 415 436 435
4 415 416 437 436
4 416 417 438 437
4 417 418 439 438
4 418 419 440 439
CELL_TYPES 400
9
9
9
9
9
9
9
9
9
9
9
9
9
9
9
9
9
9
9
9
9
9
9
9
9
9
9
9
9
9
9
9
9
9
9
9
9
9
9
9
9
9
9
9
9
9
9
9
9
9
9
9
9
9
9
9
9
9
9
9
9
9
9
9
9
9
9
9
9
9
9
9
9
9
9
9
9
9
9
9
9
9
9
9
9
9
9
9
9
9
9
9
9
9
9
9
9
9
9
9
9
9
9
9
9
9
9
9
9
9
9
9
9
9
9
9
9
9
9
9
9
9
9
9
9
9
9
9
9
9
9
9
9
9
9
9
9
9
9
9
9
9
9
9
9
9
9
9
9
9
9
9
9
9
9
9
9
9
9
9
9
9
9
9
9
9
9
9
9
9
9
9
9
9
9
9
9
9
9
9
9
9
9
9
9
9
9
9
9
9
9
9
9
9
9
9
9
9
9
9
9
9
9
9
9
9
9
9
9
9
9
9
9
9
9
9
9
9
9
9
9
9
9
9
9
9
9
9
9
9
9
9
9
9
9
9
9
9
9
9
9
9
9
9
9
9
9
9
9
9
9
9
9
9
9
9
9
9
9
9
9
9
9
9
9
9
9
9
9
9
9
9
9
9
9
9
9
9
9
9
9
9
9
9
9
9
9
9
9
9
9
9
9
9
9
9
9
9
9
9
9
9
9
9
9
9
9
9
9
9
9
9
9
9
9
9
9
9
9
9
9
9
9
9
9
9
9
9
9
9
9
9
9
9
9
9
9
9
9
9
9
9
9
9
9
9
9
9
9
9
9
9
9
9
9
9
9
9
9
9
9
9
9
9
9
9
9
9
9
9
9
9
9
9
9
9
9
9
9
9
9
9
9
9
9
9
9
9
9
9
9
9
9
9
9
9
9
9
9
9
POINT_DATA 441
VECTORS Displacement float
0 0 0
0 0 0
0 0 0
0 0 0
0 0 0
0 0 0
0 0 0
0 0 0
0 0 0
0 0 0
0 0 0
0 0 0
0 0 0
0 0 0
0 0 0
0 0 0
0 0 0
0 0 0
0 0 0
0 0 0
0 0 0
0 0 0
0 0 -5.37623e-07
0 0 -1.99289e-06
0 0 -3.95254e-06
0 0 -6.02403e-06
0 0 -7.98231e-06
0 0 -9.69107e-06
0 0 -1.10723e-05
0 0 -1.20813e-05
0 0 -1.26943e-05
0 0 -1.28997e-05
0 0 -1.26943e-05
0 0 -1.20813e-05
0 0 -1.10723e-05
0 0 -9.69107e-06
0 0 -7.98231e-06
0 0 -6.02403e-06
0 0 -3.95254e-06
0 0 -1.99289e-06
0 0 -5.37623e-07
0 0 0
0 0 0
0 0 -1.99289e-06
0 0 -7.19305e-06
0 0 -1.40875e-05
0 0 -2.14425e-05
0 0 -2.8449e-05
0 0 -3.46056e-05
0 0 -3.9607e-05
0 0 -4.32744e-05
0 0 -4.55076e-05
0 0 -4.6257e-05
0 0 -4.55076e-05
0 0 -4.32744e-05
0 0 -3.9607e-05
0 0 -3.46056e-05
0 0 -2.8449e-05
0 0 -2.14425e-05
0 0 -1.40875e-05
0 0 -7.19305e-06
0 0 -1.99289e-06
0 0 0
0 0 0
0 0 -3.95254e-06
0 0 -1.40875e-05
0 0 -2.74028e-05
0 0 -4.16907e-05
0 0 -5.54083e-05
0 0 -6.75442e-05
0 0 -7.74573e-05
0 0 -8.47552e-05
0 0 -8.9211e-05
0 0 -9.0708e-05
0 0 -8.9211e-05
0 0 -8.47552e-05
0 0 -7.74573e-05
0 0 -6.75442e-05
0 0 -5.54083e-05
0 0 -4.16907e-05
0 0 -2.74028e-05
0 0 -1.40875e-05
0 0 -3.95254e-06
0 0 0
0 0 0
0 0 -6.02403e-06
0 0 -2.14425e-05
0 0 -4.16907e-05
0 0 -6.3493e-05
0 0 -8.45417e-05
0 0 -0.000103263
0 0 -0.000118622
0 0 -0.000129968
0 0 -0.000136911
0 0 -0.000139246
0 0 -0.000136911
0 0 -0.000129968
0 0 -0.000118622
0 0 -0.000103263
0 0 -8.45417e-05
0 0 -6.3493e-05
0 0 -4.16907e-05
0 0 -2.14425e-05
0 0 -6.02403e-06
0 0 0
0 0 0
0 0 -7.98231e-06
0 0 -2.8449e-05
0 0 -5.54083e-05
0 0 -8.45417e-05
0 0 -0.000112781
0 0 -0.000137998
0 0 -0.000158758
0 0 -0.000174133
0 0 -0.000183558
0 0 -0.000186731
0 0 -0.000183558
0 0 -0.000174133
0 0 -0.000158758
0 0 -0.000137998
0 0 -0.000112781
0 0 -8.45417e-05
0 0 -5.54083e-05
0 0 -2.8449e-05
0 0 -7.98231e-06
0 0 0
0 0 0
0 0 -9.69107e-06
0 0 -3.46056e-05
0 0 -6.75442e-05
0 0 -0.000103263
0 0 -0.000137998
0 0 -0.000169108
0 0 -0.000194785
0 0 -0.00021384
0 0 -0.000225537
0 0 -0.000229477
0 0 -0.000225537
0 0 -0.00021384
0 0 -0.000194785
0 0 -0.000169108
0 0 -0.000137998
0 0 -0.000103263
0 0 -6.75442e-05
0 0 -3.46056e-05
0 0 -9.69107e-06
0 0 0
0 0 0
0 0 -1.10723e-05
0 0 -3.9607e-05
0 0 -7.74573e-05
0 0 -0.000118622
0 0 -0.000158758
0 0 -0.000194785
0 0 -0.000224577
0 0 -0.000246717
0 0 -0.000260321
0 0 -0.000264907
0 0 -0.000260321
0 0 -0.000246717
0 0 -0.000224577
0 0 -0.000194785
0 0 -0.000158758
0 0 -0.000118622
0 0 -7.74573e-05
0 0 -3.9607e-05
0 0 -1.10723e-05
0 0 0
0 0 0
0 0 -1.20813e-05
0 0 -4.32744e-05
0 0 -8.47552e-05
0 0 -0.000129968
0 0 -0.000174133
0 0 -0.00021384
0 0 -0.000246717
0 0 -0.000271175
0 0 -0.000286214
0 0 -0.000291284
0 0 -0.000286214
0 0 -0.000271175
0 0 -0.000246717
0 0 -0.00021384
0 0 -0.000174133
0 0 -0.000129968
0 0 -8.47552e-05
0 0 -4.32744e-05
0 0 -1.20813e-05
0 0 0
0 0 0
0 0 -1.26943e-05
0 0 -4.55076e-05
0 0 -8.9211e-05
0 0 -0.000136911
0 0 -0.000183558
0 0 -0.000225537
0 0 -0.000260321
0 0 -0.000286214
0 0 -0.00030214
0 0 -0.000307511
0 0 -0.00030214
0 0 -0.000286214
0 0 -0.000260321
0 0 -0.000225537
0 0 -0.000183558
0 0 -0.000136911
0 0 -8.9211e-05
0 0 -4.55076e-05
0 0 -1.26943e-05
0 0 0
0 0 0
0 0 -1.28997e-05
0 0 -4.6257e-05
0 0 -9.0708e-05
0 0 -0.000139246
0 0 -0.000186731
0 0 -0.000229477
0 0 -0.000264907
0 0 -0.000291284
0 0 -0.000307511
0 0 -0.000312984
0 0 -0.000307511
0 0 -0.000291284
0 0 -0.000264907
0 0 -0.000229477
0 0 -0.000186731
0 0 -0.000139246
0 0 -9.0708e-05
0 0 -4.6257e-05
0 0 -1.28997e-05
0 0 0
0 0 0
0 0 -1.26943e-05
0 0 -4.55076e-05
0 0 -8.9211e-05
0 0 -0.000136911
0 0 -0.000183558
0 0 -0.000225537
0 0 -0.000260321
0 0 -0.000286214
0 0 -0.00030214
0 0 -0.000307511
0 0 -0.00030214
0 0 -0.000286214
0 0 -0.000260321
0 0 -0.000225537
0 0 -0.000183558
0 0 -0.000136911
0 0 -8.9211e-05
0 0 -4.55076e-05
0 0 -1.26943e-05
0 0 0
0 0 0
0 0 -1.20813e-05
0 0 -4.32744e-05
0 0 -8.47552e-05
0 0 -0.000129968
0 0 -0.000174133
0 0 -0.00021384
0 0 -0.000246717
0 0 -0.000271175
0 0 -0.000286214
0 0 -0.000291284
0 0 -0.000286214
0 0 -0.000271175
0 0 -0.000246717
0 0 -0.00021384
0 0 -0.000174133
0 0 -0.000129968
0 0 -8.47552e-05
0 0 -4.32744e-05
0 0 -1.20813e-05
0 0 0
0 0 0
0 0 -1.10723e-05
0 0 -3.9607e-05
0 0 -7.74573e-05
0 0 -0.000118622
0 0 -0.000158758
0 0 -0.000194785
0 0 -0.000224577
0 0 -0.000246717
0 0 -0.000260321
0 0 -0.000264907
0 0 -0.000260321
0 0 -0.000246717
0 0 -0.000224577
0 0 -0.000194785
0 0 -0.000158758
0 0 -0.000118622
0 0 -7.74573e-05
0 0 -3.9607e-05
0 0 -1.10723e-05
0 0 0
0 0 0
0 0 -9.69107e-06
0 0 -3.46056e-05
0 0 -6.75442e-05
0 0 -0.000103263
0 0 -0.000137998
0 0 -0.000169108
0 0 -0.000194785
0 0 -0.00021384
0 0 -0.000225537
0 0 -0.000229477
0 0 -0.000225537
0 0 -0.00021384
0 0 -0.000194785
0 0 -0.000169108
0 0 -0.000137998
0 0 -0.000103263
0 0 -6.75442e-05
0 0 -3.46056e-05
0 0 -9.69107e-06
0 0 0
0 0 0
0 0 -7.98231e-06
0 0 -2.8449e-05
0 0 -5.54083e-05
0 0 -8.45417e-05
0 0 -0.000112781
0 0 -0.000137998
0 0 -0.000158758
0 0 -0.000174133
0 0 -0.000183558
0 0 -0.000186731
0 0 -0.000183558
0 0 -0.000174133
0 0 -0.000158758
0 0 -0.000137998
0 0 -0.000112781
0 0 -8.45417e-05
0 0 -5.54083e-05
0 0 -2.8449e-05
0 0 -7.98231e-06
0 0 0
0 0 0
0 0 -6.02403e-06
0 0 -2.14425e-05
0 0 -4.16907e-05
0 0 -6.3493e-05
0 0 -8.45417e-05
0 0 -0.000103263
0 0 -0.000118622
0 0 -0.000129968
0 0 -0.000136911
0 0 -0.000139246
0 0 -0.000136911
0 0 -0.000129968
0 0 -0.000118622
0 0 -0.000103263
0 0 -8.45417e-05
0 0 -6.3493e-05
0 0 -4.16907e-05
0 0 -2.14425e-05
0 0 -6.02403e-06
0 0 0
0 0 0
0 0 -3.95254e-06
0 0 -1.40875e-05
0 0 -2.74028e-05
0 0 -4.16907e-05
0 0 -5.54083e-05
0 0 -6.75442e-05
0 0 -7.74573e-05
0 0 -8.47552e-05
0 0 -8.9211e-05
0 0 -9.0708e-05
0 0 -8.9211e-05
0 0 -8.47552e-05
0 0 -7.74573e-05
0 0 -6.75442e-05
0 0 -5.54083e-05
0 0 -4.16907e-05
0 0 -2.74028e-05
0 0 -1.40875e-05
0 0 -3.95254e-06
0 0 0
0 0 0
0 0 -1.99289e-06
0 0 -7.19305e-06
0 0 -1.40875e-05
0 0 -2.14425e-05
0 0 -2.8449e-05
0 0 -3.46056e-05
0 0 -3.9607e-05
0 0 -4.32744e-05
0 0 -4.55076e-05
0 0 -4.6257e-05
0 0 -4.55076e-05
0 0 -4.32744e-05
0 0 -3.9607e-05
0 0 -3.46056e-05
0 0 -2.8449e-05
0 0 -2.14425e-05
0 0 -1.40875e-05
0 0 -7.19305e-06
0 0 -1.99289e-06
0 0 0
0 0 0
0 0 -5.37623e-07
0 0 -1.99289e-06
0 0 -3.95254e-06
0 0 -6.02403e-06
0 0 -7.98231e-06
0 0 -9.69107e-06
0 0 -1.10723e-05
0 0 -1.20813e-05
0 0 -1.26943e-05
0 0 -1.28997e-05
0 0 -1.26943e-05
0 0 -1.20813e-05
0 0 -1.10723e-05
0 0 -9.69107e-06
0 0 -7.98231e-06
0 0 -6.02403e-06
0 0 -3.95254e-06
0 0 -1.99289e-06
0 0 -5.37623e-07
0 0 0
0 0 0
0 0 0
0 0 0
0 0 0
0 0 0
0 0 0
0 0 0
0 0 0
0 0 0
0 0 0
0 0 0
0 0 0
0 0 0
0 0 0
0 0 0
0 0 0
0 0 0
0 0 0
0 0 0
0 0 0
0 0 0
CELL_DATA 400
SCALARS Stress float 1
LOOKUP_TABLE default
0
0
0
0
0
0
0
0
0
0
0
0
0
0
0
0
0
0
0
0
0.0307849
0.0463702
0.0491463
0.0469845
0.0413824
0.033995
0.0254902
0.0164383
0.00708748
-0.00235662
-0.0117627
-0.0209806
-0.0297601
-0.0377522
-0.0442448
-0.0482823
-0.0478639
-0.0405816
-0.0202628
0.00616848
0.114052
0.160747
0.174324
0.167717
0.149112
0.123057
0.0927257
0.059931
0.0259094
-0.00857662
-0.0428908
-0.0763441
-0.107991
-0.136275
-0.158836
-0.171702
-0.169048
-0.141357
-0.0773556
0.0228026
0.226201
0.308653
0.33744
0.327903
0.293669
0.243895
0.184552
0.119663
0.0518135
-0.0171401
-0.0856871
-0.152203
-0.214492
-0.269343
-0.311778
-0.334428
-0.326304
-0.272234
-0.155403
0.0452235
0.34474
0.468758
0.513644
0.502429
0.452717
0.377823
0.286997
0.186563
0.0809216
-0.0267281
-0.133654
-0.23696
-0.332937
-0.416289
-0.479356
-0.51105
-0.495847
-0.413472
-0.237215
0.0689146
0.456815
0.623247
0.685489
0.673351
0.609448
0.510561
0.388971
0.253387
0.110043
-0.0363238
-0.181611
-0.321503
-0.450612
-0.561578
-0.644051
-0.683577
-0.660595
-0.548911
-0.313875
0.0913243
0.554599
0.760429
0.839605
0.827675
0.751543
0.631401
0.48212
0.314574
0.136758
-0.0451026
-0.225531
-0.398797
-0.557913
-0.693577
-0.793038
-0.838915
-0.807778
-0.668575
-0.380346
0.110868
0.633651
0.872806
0.966921
0.955874
0.870073
0.732482
0.560223
0.365963
0.159214
-0.0524908
-0.26245
-0.463681
-0.647802
-0.803858
-0.917105
-0.967648
-0.92897
-0.766152
-0.433728
0.126678
0.691387
0.955635
1.06144
1.05148
0.958756
0.808294
0.618897
0.404621
0.176124
-0.0580382
-0.290212
-0.512439
-0.715257
-0.886462
-1.00978
-1.06346
-1.01871
-0.837869
-0.472622
0.138216
0.726476
1.0063
1.11945
1.11036
1.01349
0.855152
0.655204
0.428554
0.186594
-0.0614842
-0.307418
-0.542633
-0.756992
-0.937496
-1.06693
-1.1224
-1.07369
-0.881624
-0.496142
0.145237
0.738226
1.0233
1.139
1.13023
1.03198
0.871001
0.667492
0.436662
0.190145
-0.0626425
-0.313234
-0.552843
-0.771098
-0.954738
-1.08623
-1.14226
-1.09221
-0.896303
-0.504056
0.147581
0.726476
1.0063
1.11945
1.11036
1.01349
0.855152
0.655204
0.428554
0.186594
-0.0614842
-0.307418
-0.542633
-0.756992
-0.937496
-1.06693
-1.1224
-1.07369
-0.881624
-0.496142
0.145237
0.691387
0.955635
1.06144
1.05148
0.958756
0.808294
0.618897
0.404621
0.176124
-0.0580382
-0.290212
-0.512439
-0.715257
-0.886462
-1.00978
-1.06346
-1.01871
-0.837869
-0.472622
0.138216
0.633651
0.872806
0.966921
0.955874
0.870073
0.732482
0.560223
0.365963
0.159214
-0.0524908
-0.26245
-0.463681
-0.647802
-0.803858
-0.917105
-0.967648
-0.92897
-0.766152
-0.433728
0.126678
0.554599
0.760429
0.839605
0.827675
0.751543
0.631401
0.48212
0.314574
0.136758
-0.0451026
-0.225531
-0.398797
-0.557913
-0.693577
-0.793038
-0.838915
-0.807778
-0.668575
-0.380346
0.110868
0.456815
0.623247
0.685489
0.673351
0.609448
0.510561
0.388971
0.253387
0.110043
-0.0363238
-0.181611
-0.321503
-0.450612
-0.561578
-0.644051
-0.683577
-0.660595
-0.548911
-0.313875
0.0913243
0.34474
0.468758
0.513644
0.502429
0.452717
0.377823
0.286997
0.186563
0.0809216
-0.0267281
-0.133654
-0.23696
-0.332937
-0.416289
-0.479356
-0.51105
-0.495847
-0.413472
-0.237215
0.0689146
0.226201
0.308653
0.33744
0.327903
0.293669
0.243895
0.184552
0.119663
0.0518135
-0.0171401
-0.0856871
-0.152203
-0.214492
-0.269343
-0.311778
-0.334428
-0.326304
-0.272234
-0.155403
0.0452235
0.114052
0.160747
0.174324
0.167717
0.149112
0.123057
0.0927257
0.059931
0.0259094
-0.00857662
-0.0428908
-0.0763441
-0.107991
-0.136275
-0.158836
-0.171702
-0.169048
-0.141357
-0.0773556
0.0228026
0.0307849
0.0463702
0.0491463
0.0469845
0.0413824
0.033995
0.0254902
0.0164383
0.00708748
-0.00235662
-0.0117627
-0.0209806
-0.0297601
-0.0377522
-0.0442448
-0.0482823
-0.0478639
-0.0405816
-0.0202628
0.00616848
