# vtk DataFile Version 3.0
STAP++ Results
ASCII
DATASET UNSTRUCTURED_GRID
POINTS 169 float
0 0 0
0.66667 0 0
1.33333 0 0
2 0 0
2.66667 0 0
3.33333 0 0
4 0 0
4.66667 0 0
5.33333 0 0
6 0 0
6.66667 0 0
7.33333 0 0
8 0 0
0 0.66667 0
0.66667 0.66667 0
1.33333 0.66667 0
2 0.66667 0
2.66667 0.66667 0
3.33333 0.66667 0
4 0.66667 0
4.66667 0.66667 0
5.33333 0.66667 0
6 0.66667 0
6.66667 0.66667 0
7.33333 0.66667 0
8 0.66667 0
0 1.33333 0
0.66667 1.33333 0
1.33333 1.33333 0
2 1.33333 0
2.66667 1.33333 0
3.33333 1.33333 0
4 1.33333 0
4.66667 1.33333 0
5.33333 1.33333 0
6 1.33333 0
6.66667 1.33333 0
7.33333 1.33333 0
8 1.33333 0
0 2 0
0.66667 2 0
1.33333 2 0
2 2 0
2.66667 2 0
3.33333 2 0
4 2 0
4.66667 2 0
5.33333 2 0
6 2 0
6.66667 2 0
7.33333 2 0
8 2 0
0 2.66667 0
0.66667 2.66667 0
1.33333 2.66667 0
2 2.66667 0
2.66667 2.66667 0
3.33333 2.66667 0
4 2.66667 0
4.66667 2.66667 0
5.33333 2.66667 0
6 2.66667 0
6.66667 2.66667 0
7.33333 2.66667 0
8 2.66667 0
0 3.33333 0
0.66667 3.33333 0
1.33333 3.33333 0
2 3.33333 0
2.66667 3.33333 0
3.33333 3.33333 0
4 3.33333 0
4.66667 3.33333 0
5.33333 3.33333 0
6 3.33333 0
6.66667 3.33333 0
7.33333 3.33333 0
8 3.33333 0
0 4 0
0.66667 4 0
1.33333 4 0
2 4 0
2.66667 4 0
3.33333 4 0
4 4 0
4.66667 4 0
5.33333 4 0
6 4 0
6.66667 4 0
7.33333 4 0
8 4 0
0 4.66667 0
0.66667 4.66667 0
1.33333 4.66667 0
2 4.66667 0
2.66667 4.66667 0
3.33333 4.66667 0
4 4.66667 0
4.66667 4.66667 0
5.33333 4.66667 0
6 4.66667 0
6.66667 4.66667 0
7.33333 4.66667 0
8 4.66667 0
0 5.33333 0
0.66667 5.33333 0
1.33333 5.33333 0
2 5.33333 0
2.66667 5.33333 0
3.33333 5.33333 0
4 5.33333 0
4.66667 5.33333 0
5.33333 5.33333 0
6 5.33333 0
6.66667 5.33333 0
7.33333 5.33333 0
8 5.33333 0
0 6 0
0.66667 6 0
1.33333 6 0
2 6 0
2.66667 6 0
3.33333 6 0
4 6 0
4.66667 6 0
5.33333 6 0
6 6 0
6.66667 6 0
7.33333 6 0
8 6 0
0 6.66667 0
0.66667 6.66667 0
1.33333 6.66667 0
2 6.66667 0
2.66667 6.66667 0
3.33333 6.66667 0
4 6.66667 0
4.66667 6.66667 0
5.33333 6.66667 0
6 6.66667 0
6.66667 6.66667 0
7.33333 6.66667 0
8 6.66667 0
0 7.33333 0
0.66667 7.33333 0
1.33333 7.33333 0
2 7.33333 0
2.66667 7.33333 0
3.33333 7.33333 0
4 7.33333 0
4.66667 7.33333 0
5.33333 7.33333 0
6 7.33333 0
6.66667 7.33333 0
7.33333 7.33333 0
8 7.33333 0
0 8 0
0.66667 8 0
1.33333 8 0
2 8 0
2.66667 8 0
3.33333 8 0
4 8 0
4.66667 8 0
5.33333 8 0
6 8 0
6.66667 8 0
7.33333 8 0
8 8 0
CELLS 144 720
4 0 1 14 13
4 1 2 15 14
4 2 3 16 15
4 3 4 17 16
4 4 5 18 17
4 5 6 19 18
4 6 7 20 19
4 7 8 21 20
4 8 9 22 21
4 9 10 23 22
4 10 11 24 23
4 11 12 25 24
4 13 14 27 26
4 14 15 28 27
4 15 16 29 28
4 16 17 30 29
4 17 18 31 30
4 18 19 32 31
4 19 20 33 32
4 20 21 34 33
4 21 22 35 34
4 22 23 36 35
4 23 24 37 36
4 24 25 38 37
4 26 27 40 39
4 27 28 41 40
4 28 29 42 41
4 29 30 43 42
4 30 31 44 43
4 31 32 45 44
4 32 33 46 45
4 33 34 47 46
4 34 35 48 47
4 35 36 49 48
4 36 37 50 49
4 37 38 51 50
4 39 40 53 52
4 40 41 54 53
4 41 42 55 54
4 42 43 56 55
4 43 44 57 56
4 44 45 58 57
4 45 46 59 58
4 46 47 60 59
4 47 48 61 60
4 48 49 62 61
4 49 50 63 62
4 50 51 64 63
4 52 53 66 65
4 53 54 67 66
4 54 55 68 67
4 55 56 69 68
4 56 57 70 69
4 57 58 71 70
4 58 59 72 71
4 59 60 73 72
4 60 61 74 73
4 61 62 75 74
4 62 63 76 75
4 63 64 77 76
4 65 66 79 78
4 66 67 80 79
4 67 68 81 80
4 68 69 82 81
4 69 70 83 82
4 70 71 84 83
4 71 72 85 84
4 72 73 86 85
4 73 74 87 86
4 74 75 88 87
4 75 76 89 88
4 76 77 90 89
4 78 79 92 91
4 79 80 93 92
4 80 81 94 93
4 81 82 95 94
4 82 83 96 95
4 83 84 97 96
4 84 85 98 97
4 85 86 99 98
4 86 87 100 99
4 87 88 101 100
4 88 89 102 101
4 89 90 103 102
4 91 92 105 104
4 92 93 106 105
4 93 94 107 106
4 94 95 108 107
4 95 96 109 108
4 96 97 110 109
4 97 98 111 110
4 98 99 112 111
4 99 100 113 112
4 100 101 114 113
4 101 102 115 114
4 102 103 116 115
4 104 105 118 117
4 105 106 119 118
4 106 107 120 119
4 107 108 121 120
4 108 109 122 121
4 109 110 123 122
4 110 111 124 123
4 111 112 125 124
4 112 113 126 125
4 113 114 127 126
4 114 115 128 127
4 115 116 129 128
4 117 118 131 130
4 118 119 132 131
4 119 120 133 132
4 120 121 134 133
4 121 122 135 134
4 122 123 136 135
4 123 124 137 136
4 124 125 138 137
4 125 126 139 138
4 126 127 140 139
4 127 128 141 140
4 128 129 142 141
4 130 131 144 143
4 131 132 145 144
4 132 133 146 145
4 133 134 147 146
4 134 135 148 147
4 135 136 149 148
4 136 137 150 149
4 137 138 151 150
4 138 139 152 151
4 139 140 153 152
4 140 141 154 153
4 141 142 155 154
4 143 144 157 156
4 144 145 158 157
4 145 146 159 158
4 146 147 160 159
4 147 148 161 160
4 148 149 162 161
4 149 150 163 162
4 150 151 164 163
4 151 152 165 164
4 152 153 166 165
4 153 154 167 166
4 154 155 168 167
CELL_TYPES 144
9
9
9
9
9
9
9
9
9
9
9
9
9
9
9
9
9
9
9
9
9
9
9
9
9
9
9
9
9
9
9
9
9
9
9
9
9
9
9
9
9
9
9
9
9
9
9
9
9
9
9
9
9
9
9
9
9
9
9
9
9
9
9
9
9
9
9
9
9
9
9
9
9
9
9
9
9
9
9
9
9
9
9
9
9
9
9
9
9
9
9
9
9
9
9
9
9
9
9
9
9
9
9
9
9
9
9
9
9
9
9
9
9
9
9
9
9
9
9
9
9
9
9
9
9
9
9
9
9
9
9
9
9
9
9
9
9
9
9
9
9
9
9
9
POINT_DATA 169
VECTORS Displacement float
0 0 0
0 0 0
0 0 0
0 0 0
0 0 0
0 0 0
0 0 0
0 0 0
0 0 0
0 0 0
0 0 0
0 0 0
0 0 0
0 0 0
0 0 -3.52057e-06
0 0 -1.17004e-05
0 0 -2.04919e-05
0 0 -2.7603e-05
0 0 -3.2116e-05
0 0 -3.36504e-05
0 0 -3.2116e-05
0 0 -2.7603e-05
0 0 -2.04919e-05
0 0 -1.17004e-05
0 0 -3.52057e-06
0 0 0
0 0 0
0 0 -1.17004e-05
0 0 -3.85736e-05
0 0 -6.7556e-05
0 0 -9.14041e-05
0 0 -0.000106663
0 0 -0.000111882
0 0 -0.000106663
0 0 -9.14041e-05
0 0 -6.7556e-05
0 0 -3.85736e-05
0 0 -1.17004e-05
0 0 0
0 0 0
0 0 -2.04919e-05
0 0 -6.7556e-05
0 0 -0.000118668
0 0 -0.000161267
0 0 -0.000188776
0 0 -0.000198225
0 0 -0.000188776
0 0 -0.000161267
0 0 -0.000118668
0 0 -6.7556e-05
0 0 -2.04919e-05
0 0 0
0 0 0
0 0 -2.7603e-05
0 0 -9.14041e-05
0 0 -0.000161267
0 0 -0.000219896
0 0 -0.000257984
0 0 -0.000271106
0 0 -0.000257984
0 0 -0.000219896
0 0 -0.000161267
0 0 -9.14041e-05
0 0 -2.7603e-05
0 0 0
0 0 0
0 0 -3.2116e-05
0 0 -0.000106663
0 0 -0.000188776
0 0 -0.000257984
0 0 -0.000303074
0 0 -0.000318636
0 0 -0.000303074
0 0 -0.000257984
0 0 -0.000188776
0 0 -0.000106663
0 0 -3.2116e-05
0 0 0
0 0 0
0 0 -3.36504e-05
0 0 -0.000111882
0 0 -0.000198225
0 0 -0.000271106
0 0 -0.000318636
0 0 -0.000335046
0 0 -0.000318636
0 0 -0.000271106
0 0 -0.000198225
0 0 -0.000111882
0 0 -3.36504e-05
0 0 0
0 0 0
0 0 -3.2116e-05
0 0 -0.000106663
0 0 -0.000188776
0 0 -0.000257984
0 0 -0.000303074
0 0 -0.000318636
0 0 -0.000303074
0 0 -0.000257984
0 0 -0.000188776
0 0 -0.000106663
0 0 -3.2116e-05
0 0 0
0 0 0
0 0 -2.7603e-05
0 0 -9.14041e-05
0 0 -0.000161267
0 0 -0.000219896
0 0 -0.000257984
0 0 -0.000271106
0 0 -0.000257984
0 0 -0.000219896
0 0 -0.000161267
0 0 -9.14041e-05
0 0 -2.7603e-05
0 0 0
0 0 0
0 0 -2.04919e-05
0 0 -6.7556e-05
0 0 -0.000118668
0 0 -0.000161267
0 0 -0.000188776
0 0 -0.000198225
0 0 -0.000188776
0 0 -0.000161267
0 0 -0.000118668
0 0 -6.7556e-05
0 0 -2.04919e-05
0 0 0
0 0 0
0 0 -1.17004e-05
0 0 -3.85736e-05
0 0 -6.7556e-05
0 0 -9.14041e-05
0 0 -0.000106663
0 0 -0.000111882
0 0 -0.000106663
0 0 -9.14041e-05
0 0 -6.7556e-05
0 0 -3.85736e-05
0 0 -1.17004e-05
0 0 0
0 0 0
0 0 -3.52057e-06
0 0 -1.17004e-05
0 0 -2.04919e-05
0 0 -2.7603e-05
0 0 -3.2116e-05
0 0 -3.36504e-05
0 0 -3.2116e-05
0 0 -2.7603e-05
0 0 -2.04919e-05
0 0 -1.17004e-05
0 0 -3.52057e-06
0 0 0
0 0 0
0 0 0
0 0 0
0 0 0
0 0 0
0 0 0
0 0 0
0 0 0
0 0 0
0 0 0
0 0 0
0 0 0
0 0 0
CELL_DATA 144
SCALARS Stress float 1
LOOKUP_TABLE default
0
0
0
0
0
0
0
0
0
0
0
0
0.0918926
0.126443
0.114247
0.0834131
0.0441325
0.00210304
-0.0400514
-0.079852
-0.111945
-0.127279
-0.0982786
-0.00482579
0.305341
0.412093
0.381231
0.280995
0.150007
0.0071719
-0.136208
-0.26919
-0.374169
-0.414985
-0.326191
-0.0160962
0.534788
0.721718
0.676907
0.505078
0.271406
0.0129781
-0.246602
-0.484351
-0.665212
-0.727272
-0.571264
-0.0281747
0.720362
0.982708
0.928283
0.697841
0.376767
0.0180273
-0.342463
-0.669619
-0.912841
-0.991022
-0.770086
-0.0379585
0.838146
1.1516
1.09387
0.825165
0.446713
0.0213775
-0.406153
-0.792034
-1.07614
-1.16199
-0.896403
-0.0441576
0.87818
1.20981
1.15112
0.869598
0.471026
0.0225465
-0.428261
-0.834763
-1.13262
-1.22094
-0.939426
-0.0462776
0.838152
1.15161
1.09387
0.825163
0.44671
0.0213746
-0.406156
-0.792037
-1.07614
-1.16199
-0.896401
-0.0441517
0.720357
0.982707
0.928283
0.697843
0.376769
0.0180298
-0.34246
-0.669617
-0.912839
-0.991021
-0.770087
-0.0379636
0.534788
0.721718
0.676907
0.505078
0.271406
0.0129781
-0.246602
-0.484351
-0.665212
-0.727272
-0.571264
-0.0281747
0.305343
0.412094
0.38123
0.280994
0.150006
0.00717093
-0.136209
-0.269191
-0.374169
-0.414985
-0.32619
-0.016094
0.0918919
0.126443
0.114247
0.0834133
0.0441328
0.00210332
-0.0400511
-0.0798518
-0.111944
-0.127279
-0.0982788
-0.00482644
