# vtk DataFile Version 3.0
STAP++ Results
ASCII
DATASET UNSTRUCTURED_GRID
POINTS 25 float
0 0 0
2 0 0
4 0 0
6 0 0
8 0 0
0 2 0
2 2 0
4 2 0
6 2 0
8 2 0
0 4 0
2 4 0
4 4 0
6 4 0
8 4 0
0 6 0
2 6 0
4 6 0
6 6 0
8 6 0
0 8 0
2 8 0
4 8 0
6 8 0
8 8 0
CELLS 16 80
4 0 1 6 5
4 1 2 7 6
4 2 3 8 7
4 3 4 9 8
4 5 6 11 10
4 6 7 12 11
4 7 8 13 12
4 8 9 14 13
4 10 11 16 15
4 11 12 17 16
4 12 13 18 17
4 13 14 19 18
4 15 16 21 20
4 16 17 22 21
4 17 18 23 22
4 18 19 24 23
CELL_TYPES 16
9
9
9
9
9
9
9
9
9
9
9
9
9
9
9
9
POINT_DATA 25
VECTORS Displacement float
0 0 0
0 0 0
0 0 0
0 0 0
0 0 0
0 0 0
0 0 -0.000120399
0 0 -0.000240796
0 0 -0.000120399
0 0 0
0 0 0
0 0 -0.000240796
0 0 -0.000481577
0 0 -0.000240796
0 0 0
0 0 0
0 0 -0.000120399
0 0 -0.000240796
0 0 -0.000120399
0 0 0
0 0 0
0 0 0
0 0 0
0 0 0
0 0 0
CELL_DATA 16
SCALARS Stress float 1
LOOKUP_TABLE default
-0.716661
0.0551602
0.0551602
-0.716661
-1.48834
2.14984
2.14984
-1.48834
-1.48834
2.14984
2.14984
-1.48834
-0.716661
0.0551602
0.0551602
-0.716661
