# vtk DataFile Version 3.0
STAP++ Results
ASCII
DATASET UNSTRUCTURED_GRID
POINTS 1089 float
0 0 0
0.25 0 0
0.5 0 0
0.75 0 0
1 0 0
1.25 0 0
1.5 0 0
1.75 0 0
2 0 0
2.25 0 0
2.5 0 0
2.75 0 0
3 0 0
3.25 0 0
3.5 0 0
3.75 0 0
4 0 0
4.25 0 0
4.5 0 0
4.75 0 0
5 0 0
5.25 0 0
5.5 0 0
5.75 0 0
6 0 0
6.25 0 0
6.5 0 0
6.75 0 0
7 0 0
7.25 0 0
7.5 0 0
7.75 0 0
8 0 0
0 0.25 0
0.25 0.25 0
0.5 0.25 0
0.75 0.25 0
1 0.25 0
1.25 0.25 0
1.5 0.25 0
1.75 0.25 0
2 0.25 0
2.25 0.25 0
2.5 0.25 0
2.75 0.25 0
3 0.25 0
3.25 0.25 0
3.5 0.25 0
3.75 0.25 0
4 0.25 0
4.25 0.25 0
4.5 0.25 0
4.75 0.25 0
5 0.25 0
5.25 0.25 0
5.5 0.25 0
5.75 0.25 0
6 0.25 0
6.25 0.25 0
6.5 0.25 0
6.75 0.25 0
7 0.25 0
7.25 0.25 0
7.5 0.25 0
7.75 0.25 0
8 0.25 0
0 0.5 0
0.25 0.5 0
0.5 0.5 0
0.75 0.5 0
1 0.5 0
1.25 0.5 0
1.5 0.5 0
1.75 0.5 0
2 0.5 0
2.25 0.5 0
2.5 0.5 0
2.75 0.5 0
3 0.5 0
3.25 0.5 0
3.5 0.5 0
3.75 0.5 0
4 0.5 0
4.25 0.5 0
4.5 0.5 0
4.75 0.5 0
5 0.5 0
5.25 0.5 0
5.5 0.5 0
5.75 0.5 0
6 0.5 0
6.25 0.5 0
6.5 0.5 0
6.75 0.5 0
7 0.5 0
7.25 0.5 0
7.5 0.5 0
7.75 0.5 0
8 0.5 0
0 0.75 0
0.25 0.75 0
0.5 0.75 0
0.75 0.75 0
1 0.75 0
1.25 0.75 0
1.5 0.75 0
1.75 0.75 0
2 0.75 0
2.25 0.75 0
2.5 0.75 0
2.75 0.75 0
3 0.75 0
3.25 0.75 0
3.5 0.75 0
3.75 0.75 0
4 0.75 0
4.25 0.75 0
4.5 0.75 0
4.75 0.75 0
5 0.75 0
5.25 0.75 0
5.5 0.75 0
5.75 0.75 0
6 0.75 0
6.25 0.75 0
6.5 0.75 0
6.75 0.75 0
7 0.75 0
7.25 0.75 0
7.5 0.75 0
7.75 0.75 0
8 0.75 0
0 1 0
0.25 1 0
0.5 1 0
0.75 1 0
1 1 0
1.25 1 0
1.5 1 0
1.75 1 0
2 1 0
2.25 1 0
2.5 1 0
2.75 1 0
3 1 0
3.25 1 0
3.5 1 0
3.75 1 0
4 1 0
4.25 1 0
4.5 1 0
4.75 1 0
5 1 0
5.25 1 0
5.5 1 0
5.75 1 0
6 1 0
6.25 1 0
6.5 1 0
6.75 1 0
7 1 0
7.25 1 0
7.5 1 0
7.75 1 0
8 1 0
0 1.25 0
0.25 1.25 0
0.5 1.25 0
0.75 1.25 0
1 1.25 0
1.25 1.25 0
1.5 1.25 0
1.75 1.25 0
2 1.25 0
2.25 1.25 0
2.5 1.25 0
2.75 1.25 0
3 1.25 0
3.25 1.25 0
3.5 1.25 0
3.75 1.25 0
4 1.25 0
4.25 1.25 0
4.5 1.25 0
4.75 1.25 0
5 1.25 0
5.25 1.25 0
5.5 1.25 0
5.75 1.25 0
6 1.25 0
6.25 1.25 0
6.5 1.25 0
6.75 1.25 0
7 1.25 0
7.25 1.25 0
7.5 1.25 0
7.75 1.25 0
8 1.25 0
0 1.5 0
0.25 1.5 0
0.5 1.5 0
0.75 1.5 0
1 1.5 0
1.25 1.5 0
1.5 1.5 0
1.75 1.5 0
2 1.5 0
2.25 1.5 0
2.5 1.5 0
2.75 1.5 0
3 1.5 0
3.25 1.5 0
3.5 1.5 0
3.75 1.5 0
4 1.5 0
4.25 1.5 0
4.5 1.5 0
4.75 1.5 0
5 1.5 0
5.25 1.5 0
5.5 1.5 0
5.75 1.5 0
6 1.5 0
6.25 1.5 0
6.5 1.5 0
6.75 1.5 0
7 1.5 0
7.25 1.5 0
7.5 1.5 0
7.75 1.5 0
8 1.5 0
0 1.75 0
0.25 1.75 0
0.5 1.75 0
0.75 1.75 0
1 1.75 0
1.25 1.75 0
1.5 1.75 0
1.75 1.75 0
2 1.75 0
2.25 1.75 0
2.5 1.75 0
2.75 1.75 0
3 1.75 0
3.25 1.75 0
3.5 1.75 0
3.75 1.75 0
4 1.75 0
4.25 1.75 0
4.5 1.75 0
4.75 1.75 0
5 1.75 0
5.25 1.75 0
5.5 1.75 0
5.75 1.75 0
6 1.75 0
6.25 1.75 0
6.5 1.75 0
6.75 1.75 0
7 1.75 0
7.25 1.75 0
7.5 1.75 0
7.75 1.75 0
8 1.75 0
0 2 0
0.25 2 0
0.5 2 0
0.75 2 0
1 2 0
1.25 2 0
1.5 2 0
1.75 2 0
2 2 0
2.25 2 0
2.5 2 0
2.75 2 0
3 2 0
3.25 2 0
3.5 2 0
3.75 2 0
4 2 0
4.25 2 0
4.5 2 0
4.75 2 0
5 2 0
5.25 2 0
5.5 2 0
5.75 2 0
6 2 0
6.25 2 0
6.5 2 0
6.75 2 0
7 2 0
7.25 2 0
7.5 2 0
7.75 2 0
8 2 0
0 2.25 0
0.25 2.25 0
0.5 2.25 0
0.75 2.25 0
1 2.25 0
1.25 2.25 0
1.5 2.25 0
1.75 2.25 0
2 2.25 0
2.25 2.25 0
2.5 2.25 0
2.75 2.25 0
3 2.25 0
3.25 2.25 0
3.5 2.25 0
3.75 2.25 0
4 2.25 0
4.25 2.25 0
4.5 2.25 0
4.75 2.25 0
5 2.25 0
5.25 2.25 0
5.5 2.25 0
5.75 2.25 0
6 2.25 0
6.25 2.25 0
6.5 2.25 0
6.75 2.25 0
7 2.25 0
7.25 2.25 0
7.5 2.25 0
7.75 2.25 0
8 2.25 0
0 2.5 0
0.25 2.5 0
0.5 2.5 0
0.75 2.5 0
1 2.5 0
1.25 2.5 0
1.5 2.5 0
1.75 2.5 0
2 2.5 0
2.25 2.5 0
2.5 2.5 0
2.75 2.5 0
3 2.5 0
3.25 2.5 0
3.5 2.5 0
3.75 2.5 0
4 2.5 0
4.25 2.5 0
4.5 2.5 0
4.75 2.5 0
5 2.5 0
5.25 2.5 0
5.5 2.5 0
5.75 2.5 0
6 2.5 0
6.25 2.5 0
6.5 2.5 0
6.75 2.5 0
7 2.5 0
7.25 2.5 0
7.5 2.5 0
7.75 2.5 0
8 2.5 0
0 2.75 0
0.25 2.75 0
0.5 2.75 0
0.75 2.75 0
1 2.75 0
1.25 2.75 0
1.5 2.75 0
1.75 2.75 0
2 2.75 0
2.25 2.75 0
2.5 2.75 0
2.75 2.75 0
3 2.75 0
3.25 2.75 0
3.5 2.75 0
3.75 2.75 0
4 2.75 0
4.25 2.75 0
4.5 2.75 0
4.75 2.75 0
5 2.75 0
5.25 2.75 0
5.5 2.75 0
5.75 2.75 0
6 2.75 0
6.25 2.75 0
6.5 2.75 0
6.75 2.75 0
7 2.75 0
7.25 2.75 0
7.5 2.75 0
7.75 2.75 0
8 2.75 0
0 3 0
0.25 3 0
0.5 3 0
0.75 3 0
1 3 0
1.25 3 0
1.5 3 0
1.75 3 0
2 3 0
2.25 3 0
2.5 3 0
2.75 3 0
3 3 0
3.25 3 0
3.5 3 0
3.75 3 0
4 3 0
4.25 3 0
4.5 3 0
4.75 3 0
5 3 0
5.25 3 0
5.5 3 0
5.75 3 0
6 3 0
6.25 3 0
6.5 3 0
6.75 3 0
7 3 0
7.25 3 0
7.5 3 0
7.75 3 0
8 3 0
0 3.25 0
0.25 3.25 0
0.5 3.25 0
0.75 3.25 0
1 3.25 0
1.25 3.25 0
1.5 3.25 0
1.75 3.25 0
2 3.25 0
2.25 3.25 0
2.5 3.25 0
2.75 3.25 0
3 3.25 0
3.25 3.25 0
3.5 3.25 0
3.75 3.25 0
4 3.25 0
4.25 3.25 0
4.5 3.25 0
4.75 3.25 0
5 3.25 0
5.25 3.25 0
5.5 3.25 0
5.75 3.25 0
6 3.25 0
6.25 3.25 0
6.5 3.25 0
6.75 3.25 0
7 3.25 0
7.25 3.25 0
7.5 3.25 0
7.75 3.25 0
8 3.25 0
0 3.5 0
0.25 3.5 0
0.5 3.5 0
0.75 3.5 0
1 3.5 0
1.25 3.5 0
1.5 3.5 0
1.75 3.5 0
2 3.5 0
2.25 3.5 0
2.5 3.5 0
2.75 3.5 0
3 3.5 0
3.25 3.5 0
3.5 3.5 0
3.75 3.5 0
4 3.5 0
4.25 3.5 0
4.5 3.5 0
4.75 3.5 0
5 3.5 0
5.25 3.5 0
5.5 3.5 0
5.75 3.5 0
6 3.5 0
6.25 3.5 0
6.5 3.5 0
6.75 3.5 0
7 3.5 0
7.25 3.5 0
7.5 3.5 0
7.75 3.5 0
8 3.5 0
0 3.75 0
0.25 3.75 0
0.5 3.75 0
0.75 3.75 0
1 3.75 0
1.25 3.75 0
1.5 3.75 0
1.75 3.75 0
2 3.75 0
2.25 3.75 0
2.5 3.75 0
2.75 3.75 0
3 3.75 0
3.25 3.75 0
3.5 3.75 0
3.75 3.75 0
4 3.75 0
4.25 3.75 0
4.5 3.75 0
4.75 3.75 0
5 3.75 0
5.25 3.75 0
5.5 3.75 0
5.75 3.75 0
6 3.75 0
6.25 3.75 0
6.5 3.75 0
6.75 3.75 0
7 3.75 0
7.25 3.75 0
7.5 3.75 0
7.75 3.75 0
8 3.75 0
0 4 0
0.25 4 0
0.5 4 0
0.75 4 0
1 4 0
1.25 4 0
1.5 4 0
1.75 4 0
2 4 0
2.25 4 0
2.5 4 0
2.75 4 0
3 4 0
3.25 4 0
3.5 4 0
3.75 4 0
4 4 0
4.25 4 0
4.5 4 0
4.75 4 0
5 4 0
5.25 4 0
5.5 4 0
5.75 4 0
6 4 0
6.25 4 0
6.5 4 0
6.75 4 0
7 4 0
7.25 4 0
7.5 4 0
7.75 4 0
8 4 0
0 4.25 0
0.25 4.25 0
0.5 4.25 0
0.75 4.25 0
1 4.25 0
1.25 4.25 0
1.5 4.25 0
1.75 4.25 0
2 4.25 0
2.25 4.25 0
2.5 4.25 0
2.75 4.25 0
3 4.25 0
3.25 4.25 0
3.5 4.25 0
3.75 4.25 0
4 4.25 0
4.25 4.25 0
4.5 4.25 0
4.75 4.25 0
5 4.25 0
5.25 4.25 0
5.5 4.25 0
5.75 4.25 0
6 4.25 0
6.25 4.25 0
6.5 4.25 0
6.75 4.25 0
7 4.25 0
7.25 4.25 0
7.5 4.25 0
7.75 4.25 0
8 4.25 0
0 4.5 0
0.25 4.5 0
0.5 4.5 0
0.75 4.5 0
1 4.5 0
1.25 4.5 0
1.5 4.5 0
1.75 4.5 0
2 4.5 0
2.25 4.5 0
2.5 4.5 0
2.75 4.5 0
3 4.5 0
3.25 4.5 0
3.5 4.5 0
3.75 4.5 0
4 4.5 0
4.25 4.5 0
4.5 4.5 0
4.75 4.5 0
5 4.5 0
5.25 4.5 0
5.5 4.5 0
5.75 4.5 0
6 4.5 0
6.25 4.5 0
6.5 4.5 0
6.75 4.5 0
7 4.5 0
7.25 4.5 0
7.5 4.5 0
7.75 4.5 0
8 4.5 0
0 4.75 0
0.25 4.75 0
0.5 4.75 0
0.75 4.75 0
1 4.75 0
1.25 4.75 0
1.5 4.75 0
1.75 4.75 0
2 4.75 0
2.25 4.75 0
2.5 4.75 0
2.75 4.75 0
3 4.75 0
3.25 4.75 0
3.5 4.75 0
3.75 4.75 0
4 4.75 0
4.25 4.75 0
4.5 4.75 0
4.75 4.75 0
5 4.75 0
5.25 4.75 0
5.5 4.75 0
5.75 4.75 0
6 4.75 0
6.25 4.75 0
6.5 4.75 0
6.75 4.75 0
7 4.75 0
7.25 4.75 0
7.5 4.75 0
7.75 4.75 0
8 4.75 0
0 5 0
0.25 5 0
0.5 5 0
0.75 5 0
1 5 0
1.25 5 0
1.5 5 0
1.75 5 0
2 5 0
2.25 5 0
2.5 5 0
2.75 5 0
3 5 0
3.25 5 0
3.5 5 0
3.75 5 0
4 5 0
4.25 5 0
4.5 5 0
4.75 5 0
5 5 0
5.25 5 0
5.5 5 0
5.75 5 0
6 5 0
6.25 5 0
6.5 5 0
6.75 5 0
7 5 0
7.25 5 0
7.5 5 0
7.75 5 0
8 5 0
0 5.25 0
0.25 5.25 0
0.5 5.25 0
0.75 5.25 0
1 5.25 0
1.25 5.25 0
1.5 5.25 0
1.75 5.25 0
2 5.25 0
2.25 5.25 0
2.5 5.25 0
2.75 5.25 0
3 5.25 0
3.25 5.25 0
3.5 5.25 0
3.75 5.25 0
4 5.25 0
4.25 5.25 0
4.5 5.25 0
4.75 5.25 0
5 5.25 0
5.25 5.25 0
5.5 5.25 0
5.75 5.25 0
6 5.25 0
6.25 5.25 0
6.5 5.25 0
6.75 5.25 0
7 5.25 0
7.25 5.25 0
7.5 5.25 0
7.75 5.25 0
8 5.25 0
0 5.5 0
0.25 5.5 0
0.5 5.5 0
0.75 5.5 0
1 5.5 0
1.25 5.5 0
1.5 5.5 0
1.75 5.5 0
2 5.5 0
2.25 5.5 0
2.5 5.5 0
2.75 5.5 0
3 5.5 0
3.25 5.5 0
3.5 5.5 0
3.75 5.5 0
4 5.5 0
4.25 5.5 0
4.5 5.5 0
4.75 5.5 0
5 5.5 0
5.25 5.5 0
5.5 5.5 0
5.75 5.5 0
6 5.5 0
6.25 5.5 0
6.5 5.5 0
6.75 5.5 0
7 5.5 0
7.25 5.5 0
7.5 5.5 0
7.75 5.5 0
8 5.5 0
0 5.75 0
0.25 5.75 0
0.5 5.75 0
0.75 5.75 0
1 5.75 0
1.25 5.75 0
1.5 5.75 0
1.75 5.75 0
2 5.75 0
2.25 5.75 0
2.5 5.75 0
2.75 5.75 0
3 5.75 0
3.25 5.75 0
3.5 5.75 0
3.75 5.75 0
4 5.75 0
4.25 5.75 0
4.5 5.75 0
4.75 5.75 0
5 5.75 0
5.25 5.75 0
5.5 5.75 0
5.75 5.75 0
6 5.75 0
6.25 5.75 0
6.5 5.75 0
6.75 5.75 0
7 5.75 0
7.25 5.75 0
7.5 5.75 0
7.75 5.75 0
8 5.75 0
0 6 0
0.25 6 0
0.5 6 0
0.75 6 0
1 6 0
1.25 6 0
1.5 6 0
1.75 6 0
2 6 0
2.25 6 0
2.5 6 0
2.75 6 0
3 6 0
3.25 6 0
3.5 6 0
3.75 6 0
4 6 0
4.25 6 0
4.5 6 0
4.75 6 0
5 6 0
5.25 6 0
5.5 6 0
5.75 6 0
6 6 0
6.25 6 0
6.5 6 0
6.75 6 0
7 6 0
7.25 6 0
7.5 6 0
7.75 6 0
8 6 0
0 6.25 0
0.25 6.25 0
0.5 6.25 0
0.75 6.25 0
1 6.25 0
1.25 6.25 0
1.5 6.25 0
1.75 6.25 0
2 6.25 0
2.25 6.25 0
2.5 6.25 0
2.75 6.25 0
3 6.25 0
3.25 6.25 0
3.5 6.25 0
3.75 6.25 0
4 6.25 0
4.25 6.25 0
4.5 6.25 0
4.75 6.25 0
5 6.25 0
5.25 6.25 0
5.5 6.25 0
5.75 6.25 0
6 6.25 0
6.25 6.25 0
6.5 6.25 0
6.75 6.25 0
7 6.25 0
7.25 6.25 0
7.5 6.25 0
7.75 6.25 0
8 6.25 0
0 6.5 0
0.25 6.5 0
0.5 6.5 0
0.75 6.5 0
1 6.5 0
1.25 6.5 0
1.5 6.5 0
1.75 6.5 0
2 6.5 0
2.25 6.5 0
2.5 6.5 0
2.75 6.5 0
3 6.5 0
3.25 6.5 0
3.5 6.5 0
3.75 6.5 0
4 6.5 0
4.25 6.5 0
4.5 6.5 0
4.75 6.5 0
5 6.5 0
5.25 6.5 0
5.5 6.5 0
5.75 6.5 0
6 6.5 0
6.25 6.5 0
6.5 6.5 0
6.75 6.5 0
7 6.5 0
7.25 6.5 0
7.5 6.5 0
7.75 6.5 0
8 6.5 0
0 6.75 0
0.25 6.75 0
0.5 6.75 0
0.75 6.75 0
1 6.75 0
1.25 6.75 0
1.5 6.75 0
1.75 6.75 0
2 6.75 0
2.25 6.75 0
2.5 6.75 0
2.75 6.75 0
3 6.75 0
3.25 6.75 0
3.5 6.75 0
3.75 6.75 0
4 6.75 0
4.25 6.75 0
4.5 6.75 0
4.75 6.75 0
5 6.75 0
5.25 6.75 0
5.5 6.75 0
5.75 6.75 0
6 6.75 0
6.25 6.75 0
6.5 6.75 0
6.75 6.75 0
7 6.75 0
7.25 6.75 0
7.5 6.75 0
7.75 6.75 0
8 6.75 0
0 7 0
0.25 7 0
0.5 7 0
0.75 7 0
1 7 0
1.25 7 0
1.5 7 0
1.75 7 0
2 7 0
2.25 7 0
2.5 7 0
2.75 7 0
3 7 0
3.25 7 0
3.5 7 0
3.75 7 0
4 7 0
4.25 7 0
4.5 7 0
4.75 7 0
5 7 0
5.25 7 0
5.5 7 0
5.75 7 0
6 7 0
6.25 7 0
6.5 7 0
6.75 7 0
7 7 0
7.25 7 0
7.5 7 0
7.75 7 0
8 7 0
0 7.25 0
0.25 7.25 0
0.5 7.25 0
0.75 7.25 0
1 7.25 0
1.25 7.25 0
1.5 7.25 0
1.75 7.25 0
2 7.25 0
2.25 7.25 0
2.5 7.25 0
2.75 7.25 0
3 7.25 0
3.25 7.25 0
3.5 7.25 0
3.75 7.25 0
4 7.25 0
4.25 7.25 0
4.5 7.25 0
4.75 7.25 0
5 7.25 0
5.25 7.25 0
5.5 7.25 0
5.75 7.25 0
6 7.25 0
6.25 7.25 0
6.5 7.25 0
6.75 7.25 0
7 7.25 0
7.25 7.25 0
7.5 7.25 0
7.75 7.25 0
8 7.25 0
0 7.5 0
0.25 7.5 0
0.5 7.5 0
0.75 7.5 0
1 7.5 0
1.25 7.5 0
1.5 7.5 0
1.75 7.5 0
2 7.5 0
2.25 7.5 0
2.5 7.5 0
2.75 7.5 0
3 7.5 0
3.25 7.5 0
3.5 7.5 0
3.75 7.5 0
4 7.5 0
4.25 7.5 0
4.5 7.5 0
4.75 7.5 0
5 7.5 0
5.25 7.5 0
5.5 7.5 0
5.75 7.5 0
6 7.5 0
6.25 7.5 0
6.5 7.5 0
6.75 7.5 0
7 7.5 0
7.25 7.5 0
7.5 7.5 0
7.75 7.5 0
8 7.5 0
0 7.75 0
0.25 7.75 0
0.5 7.75 0
0.75 7.75 0
1 7.75 0
1.25 7.75 0
1.5 7.75 0
1.75 7.75 0
2 7.75 0
2.25 7.75 0
2.5 7.75 0
2.75 7.75 0
3 7.75 0
3.25 7.75 0
3.5 7.75 0
3.75 7.75 0
4 7.75 0
4.25 7.75 0
4.5 7.75 0
4.75 7.75 0
5 7.75 0
5.25 7.75 0
5.5 7.75 0
5.75 7.75 0
6 7.75 0
6.25 7.75 0
6.5 7.75 0
6.75 7.75 0
7 7.75 0
7.25 7.75 0
7.5 7.75 0
7.75 7.75 0
8 7.75 0
0 8 0
0.25 8 0
0.5 8 0
0.75 8 0
1 8 0
1.25 8 0
1.5 8 0
1.75 8 0
2 8 0
2.25 8 0
2.5 8 0
2.75 8 0
3 8 0
3.25 8 0
3.5 8 0
3.75 8 0
4 8 0
4.25 8 0
4.5 8 0
4.75 8 0
5 8 0
5.25 8 0
5.5 8 0
5.75 8 0
6 8 0
6.25 8 0
6.5 8 0
6.75 8 0
7 8 0
7.25 8 0
7.5 8 0
7.75 8 0
8 8 0
CELLS 1024 5120
4 0 1 34 33
4 1 2 35 34
4 2 3 36 35
4 3 4 37 36
4 4 5 38 37
4 5 6 39 38
4 6 7 40 39
4 7 8 41 40
4 8 9 42 41
4 9 10 43 42
4 10 11 44 43
4 11 12 45 44
4 12 13 46 45
4 13 14 47 46
4 14 15 48 47
4 15 16 49 48
4 16 17 50 49
4 17 18 51 50
4 18 19 52 51
4 19 20 53 52
4 20 21 54 53
4 21 22 55 54
4 22 23 56 55
4 23 24 57 56
4 24 25 58 57
4 25 26 59 58
4 26 27 60 59
4 27 28 61 60
4 28 29 62 61
4 29 30 63 62
4 30 31 64 63
4 31 32 65 64
4 33 34 67 66
4 34 35 68 67
4 35 36 69 68
4 36 37 70 69
4 37 38 71 70
4 38 39 72 71
4 39 40 73 72
4 40 41 74 73
4 41 42 75 74
4 42 43 76 75
4 43 44 77 76
4 44 45 78 77
4 45 46 79 78
4 46 47 80 79
4 47 48 81 80
4 48 49 82 81
4 49 50 83 82
4 50 51 84 83
4 51 52 85 84
4 52 53 86 85
4 53 54 87 86
4 54 55 88 87
4 55 56 89 88
4 56 57 90 89
4 57 58 91 90
4 58 59 92 91
4 59 60 93 92
4 60 61 94 93
4 61 62 95 94
4 62 63 96 95
4 63 64 97 96
4 64 65 98 97
4 66 67 100 99
4 67 68 101 100
4 68 69 102 101
4 69 70 103 102
4 70 71 104 103
4 71 72 105 104
4 72 73 106 105
4 73 74 107 106
4 74 75 108 107
4 75 76 109 108
4 76 77 110 109
4 77 78 111 110
4 78 79 112 111
4 79 80 113 112
4 80 81 114 113
4 81 82 115 114
4 82 83 116 115
4 83 84 117 116
4 84 85 118 117
4 85 86 119 118
4 86 87 120 119
4 87 88 121 120
4 88 89 122 121
4 89 90 123 122
4 90 91 124 123
4 91 92 125 124
4 92 93 126 125
4 93 94 127 126
4 94 95 128 127
4 95 96 129 128
4 96 97 130 129
4 97 98 131 130
4 99 100 133 132
4 100 101 134 133
4 101 102 135 134
4 102 103 136 135
4 103 104 137 136
4 104 105 138 137
4 105 106 139 138
4 106 107 140 139
4 107 108 141 140
4 108 109 142 141
4 109 110 143 142
4 110 111 144 143
4 111 112 145 144
4 112 113 146 145
4 113 114 147 146
4 114 115 148 147
4 115 116 149 148
4 116 117 150 149
4 117 118 151 150
4 118 119 152 151
4 119 120 153 152
4 120 121 154 153
4 121 122 155 154
4 122 123 156 155
4 123 124 157 156
4 124 125 158 157
4 125 126 159 158
4 126 127 160 159
4 127 128 161 160
4 128 129 162 161
4 129 130 163 162
4 130 131 164 163
4 132 133 166 165
4 133 134 167 166
4 134 135 168 167
4 135 136 169 168
4 136 137 170 169
4 137 138 171 170
4 138 139 172 171
4 139 140 173 172
4 140 141 174 173
4 141 142 175 174
4 142 143 176 175
4 143 144 177 176
4 144 145 178 177
4 145 146 179 178
4 146 147 180 179
4 147 148 181 180
4 148 149 182 181
4 149 150 183 182
4 150 151 184 183
4 151 152 185 184
4 152 153 186 185
4 153 154 187 186
4 154 155 188 187
4 155 156 189 188
4 156 157 190 189
4 157 158 191 190
4 158 159 192 191
4 159 160 193 192
4 160 161 194 193
4 161 162 195 194
4 162 163 196 195
4 163 164 197 196
4 165 166 199 198
4 166 167 200 199
4 167 168 201 200
4 168 169 202 201
4 169 170 203 202
4 170 171 204 203
4 171 172 205 204
4 172 173 206 205
4 173 174 207 206
4 174 175 208 207
4 175 176 209 208
4 176 177 210 209
4 177 178 211 210
4 178 179 212 211
4 179 180 213 212
4 180 181 214 213
4 181 182 215 214
4 182 183 216 215
4 183 184 217 216
4 184 185 218 217
4 185 186 219 218
4 186 187 220 219
4 187 188 221 220
4 188 189 222 221
4 189 190 223 222
4 190 191 224 223
4 191 192 225 224
4 192 193 226 225
4 193 194 227 226
4 194 195 228 227
4 195 196 229 228
4 196 197 230 229
4 198 199 232 231
4 199 200 233 232
4 200 201 234 233
4 201 202 235 234
4 202 203 236 235
4 203 204 237 236
4 204 205 238 237
4 205 206 239 238
4 206 207 240 239
4 207 208 241 240
4 208 209 242 241
4 209 210 243 242
4 210 211 244 243
4 211 212 245 244
4 212 213 246 245
4 213 214 247 246
4 214 215 248 247
4 215 216 249 248
4 216 217 250 249
4 217 218 251 250
4 218 219 252 251
4 219 220 253 252
4 220 221 254 253
4 221 222 255 254
4 222 223 256 255
4 223 224 257 256
4 224 225 258 257
4 225 226 259 258
4 226 227 260 259
4 227 228 261 260
4 228 229 262 261
4 229 230 263 262
4 231 232 265 264
4 232 233 266 265
4 233 234 267 266
4 234 235 268 267
4 235 236 269 268
4 236 237 270 269
4 237 238 271 270
4 238 239 272 271
4 239 240 273 272
4 240 241 274 273
4 241 242 275 274
4 242 243 276 275
4 243 244 277 276
4 244 245 278 277
4 245 246 279 278
4 246 247 280 279
4 247 248 281 280
4 248 249 282 281
4 249 250 283 282
4 250 251 284 283
4 251 252 285 284
4 252 253 286 285
4 253 254 287 286
4 254 255 288 287
4 255 256 289 288
4 256 257 290 289
4 257 258 291 290
4 258 259 292 291
4 259 260 293 292
4 260 261 294 293
4 261 262 295 294
4 262 263 296 295
4 264 265 298 297
4 265 266 299 298
4 266 267 300 299
4 267 268 301 300
4 268 269 302 301
4 269 270 303 302
4 270 271 304 303
4 271 272 305 304
4 272 273 306 305
4 273 274 307 306
4 274 275 308 307
4 275 276 309 308
4 276 277 310 309
4 277 278 311 310
4 278 279 312 311
4 279 280 313 312
4 280 281 314 313
4 281 282 315 314
4 282 283 316 315
4 283 284 317 316
4 284 285 318 317
4 285 286 319 318
4 286 287 320 319
4 287 288 321 320
4 288 289 322 321
4 289 290 323 322
4 290 291 324 323
4 291 292 325 324
4 292 293 326 325
4 293 294 327 326
4 294 295 328 327
4 295 296 329 328
4 297 298 331 330
4 298 299 332 331
4 299 300 333 332
4 300 301 334 333
4 301 302 335 334
4 302 303 336 335
4 303 304 337 336
4 304 305 338 337
4 305 306 339 338
4 306 307 340 339
4 307 308 341 340
4 308 309 342 341
4 309 310 343 342
4 310 311 344 343
4 311 312 345 344
4 312 313 346 345
4 313 314 347 346
4 314 315 348 347
4 315 316 349 348
4 316 317 350 349
4 317 318 351 350
4 318 319 352 351
4 319 320 353 352
4 320 321 354 353
4 321 322 355 354
4 322 323 356 355
4 323 324 357 356
4 324 325 358 357
4 325 326 359 358
4 326 327 360 359
4 327 328 361 360
4 328 329 362 361
4 330 331 364 363
4 331 332 365 364
4 332 333 366 365
4 333 334 367 366
4 334 335 368 367
4 335 336 369 368
4 336 337 370 369
4 337 338 371 370
4 338 339 372 371
4 339 340 373 372
4 340 341 374 373
4 341 342 375 374
4 342 343 376 375
4 343 344 377 376
4 344 345 378 377
4 345 346 379 378
4 346 347 380 379
4 347 348 381 380
4 348 349 382 381
4 349 350 383 382
4 350 351 384 383
4 351 352 385 384
4 352 353 386 385
4 353 354 387 386
4 354 355 388 387
4 355 356 389 388
4 356 357 390 389
4 357 358 391 390
4 358 359 392 391
4 359 360 393 392
4 360 361 394 393
4 361 362 395 394
4 363 364 397 396
4 364 365 398 397
4 365 366 399 398
4 366 367 400 399
4 367 368 401 400
4 368 369 402 401
4 369 370 403 402
4 370 371 404 403
4 371 372 405 404
4 372 373 406 405
4 373 374 407 406
4 374 375 408 407
4 375 376 409 408
4 376 377 410 409
4 377 378 411 410
4 378 379 412 411
4 379 380 413 412
4 380 381 414 413
4 381 382 415 414
4 382 383 416 415
4 383 384 417 416
4 384 385 418 417
4 385 386 419 418
4 386 387 420 419
4 387 388 421 420
4 388 389 422 421
4 389 390 423 422
4 390 391 424 423
4 391 392 425 424
4 392 393 426 425
4 393 394 427 426
4 394 395 428 427
4 396 397 430 429
4 397 398 431 430
4 398 399 432 431
4 399 400 433 432
4 400 401 434 433
4 401 402 435 434
4 402 403 436 435
4 403 404 437 436
4 404 405 438 437
4 405 406 439 438
4 406 407 440 439
4 407 408 441 440
4 408 409 442 441
4 409 410 443 442
4 410 411 444 443
4 411 412 445 444
4 412 413 446 445
4 413 414 447 446
4 414 415 448 447
4 415 416 449 448
4 416 417 450 449
4 417 418 451 450
4 418 419 452 451
4 419 420 453 452
4 420 421 454 453
4 421 422 455 454
4 422 423 456 455
4 423 424 457 456
4 424 425 458 457
4 425 426 459 458
4 426 427 460 459
4 427 428 461 460
4 429 430 463 462
4 430 431 464 463
4 431 432 465 464
4 432 433 466 465
4 433 434 467 466
4 434 435 468 467
4 435 436 469 468
4 436 437 470 469
4 437 438 471 470
4 438 439 472 471
4 439 440 473 472
4 440 441 474 473
4 441 442 475 474
4 442 443 476 475
4 443 444 477 476
4 444 445 478 477
4 445 446 479 478
4 446 447 480 479
4 447 448 481 480
4 448 449 482 481
4 449 450 483 482
4 450 451 484 483
4 451 452 485 484
4 452 453 486 485
4 453 454 487 486
4 454 455 488 487
4 455 456 489 488
4 456 457 490 489
4 457 458 491 490
4 458 459 492 491
4 459 460 493 492
4 460 461 494 493
4 462 463 496 495
4 463 464 497 496
4 464 465 498 497
4 465 466 499 498
4 466 467 500 499
4 467 468 501 500
4 468 469 502 501
4 469 470 503 502
4 470 471 504 503
4 471 472 505 504
4 472 473 506 505
4 473 474 507 506
4 474 475 508 507
4 475 476 509 508
4 476 477 510 509
4 477 478 511 510
4 478 479 512 511
4 479 480 513 512
4 480 481 514 513
4 481 482 515 514
4 482 483 516 515
4 483 484 517 516
4 484 485 518 517
4 485 486 519 518
4 486 487 520 519
4 487 488 521 520
4 488 489 522 521
4 489 490 523 522
4 490 491 524 523
4 491 492 525 524
4 492 493 526 525
4 493 494 527 526
4 495 496 529 528
4 496 497 530 529
4 497 498 531 530
4 498 499 532 531
4 499 500 533 532
4 500 501 534 533
4 501 502 535 534
4 502 503 536 535
4 503 504 537 536
4 504 505 538 537
4 505 506 539 538
4 506 507 540 539
4 507 508 541 540
4 508 509 542 541
4 509 510 543 542
4 510 511 544 543
4 511 512 545 544
4 512 513 546 545
4 513 514 547 546
4 514 515 548 547
4 515 516 549 548
4 516 517 550 549
4 517 518 551 550
4 518 519 552 551
4 519 520 553 552
4 520 521 554 553
4 521 522 555 554
4 522 523 556 555
4 523 524 557 556
4 524 525 558 557
4 525 526 559 558
4 526 527 560 559
4 528 529 562 561
4 529 530 563 562
4 530 531 564 563
4 531 532 565 564
4 532 533 566 565
4 533 534 567 566
4 534 535 568 567
4 535 536 569 568
4 536 537 570 569
4 537 538 571 570
4 538 539 572 571
4 539 540 573 572
4 540 541 574 573
4 541 542 575 574
4 542 543 576 575
4 543 544 577 576
4 544 545 578 577
4 545 546 579 578
4 546 547 580 579
4 547 548 581 580
4 548 549 582 581
4 549 550 583 582
4 550 551 584 583
4 551 552 585 584
4 552 553 586 585
4 553 554 587 586
4 554 555 588 587
4 555 556 589 588
4 556 557 590 589
4 557 558 591 590
4 558 559 592 591
4 559 560 593 592
4 561 562 595 594
4 562 563 596 595
4 563 564 597 596
4 564 565 598 597
4 565 566 599 598
4 566 567 600 599
4 567 568 601 600
4 568 569 602 601
4 569 570 603 602
4 570 571 604 603
4 571 572 605 604
4 572 573 606 605
4 573 574 607 606
4 574 575 608 607
4 575 576 609 608
4 576 577 610 609
4 577 578 611 610
4 578 579 612 611
4 579 580 613 612
4 580 581 614 613
4 581 582 615 614
4 582 583 616 615
4 583 584 617 616
4 584 585 618 617
4 585 586 619 618
4 586 587 620 619
4 587 588 621 620
4 588 589 622 621
4 589 590 623 622
4 590 591 624 623
4 591 592 625 624
4 592 593 626 625
4 594 595 628 627
4 595 596 629 628
4 596 597 630 629
4 597 598 631 630
4 598 599 632 631
4 599 600 633 632
4 600 601 634 633
4 601 602 635 634
4 602 603 636 635
4 603 604 637 636
4 604 605 638 637
4 605 606 639 638
4 606 607 640 639
4 607 608 641 640
4 608 609 642 641
4 609 610 643 642
4 610 611 644 643
4 611 612 645 644
4 612 613 646 645
4 613 614 647 646
4 614 615 648 647
4 615 616 649 648
4 616 617 650 649
4 617 618 651 650
4 618 619 652 651
4 619 620 653 652
4 620 621 654 653
4 621 622 655 654
4 622 623 656 655
4 623 624 657 656
4 624 625 658 657
4 625 626 659 658
4 627 628 661 660
4 628 629 662 661
4 629 630 663 662
4 630 631 664 663
4 631 632 665 664
4 632 633 666 665
4 633 634 667 666
4 634 635 668 667
4 635 636 669 668
4 636 637 670 669
4 637 638 671 670
4 638 639 672 671
4 639 640 673 672
4 640 641 674 673
4 641 642 675 674
4 642 643 676 675
4 643 644 677 676
4 644 645 678 677
4 645 646 679 678
4 646 647 680 679
4 647 648 681 680
4 648 649 682 681
4 649 650 683 682
4 650 651 684 683
4 651 652 685 684
4 652 653 686 685
4 653 654 687 686
4 654 655 688 687
4 655 656 689 688
4 656 657 690 689
4 657 658 691 690
4 658 659 692 691
4 660 661 694 693
4 661 662 695 694
4 662 663 696 695
4 663 664 697 696
4 664 665 698 697
4 665 666 699 698
4 666 667 700 699
4 667 668 701 700
4 668 669 702 701
4 669 670 703 702
4 670 671 704 703
4 671 672 705 704
4 672 673 706 705
4 673 674 707 706
4 674 675 708 707
4 675 676 709 708
4 676 677 710 709
4 677 678 711 710
4 678 679 712 711
4 679 680 713 712
4 680 681 714 713
4 681 682 715 714
4 682 683 716 715
4 683 684 717 716
4 684 685 718 717
4 685 686 719 718
4 686 687 720 719
4 687 688 721 720
4 688 689 722 721
4 689 690 723 722
4 690 691 724 723
4 691 692 725 724
4 693 694 727 726
4 694 695 728 727
4 695 696 729 728
4 696 697 730 729
4 697 698 731 730
4 698 699 732 731
4 699 700 733 732
4 700 701 734 733
4 701 702 735 734
4 702 703 736 735
4 703 704 737 736
4 704 705 738 737
4 705 706 739 738
4 706 707 740 739
4 707 708 741 740
4 708 709 742 741
4 709 710 743 742
4 710 711 744 743
4 711 712 745 744
4 712 713 746 745
4 713 714 747 746
4 714 715 748 747
4 715 716 749 748
4 716 717 750 749
4 717 718 751 750
4 718 719 752 751
4 719 720 753 752
4 720 721 754 753
4 721 722 755 754
4 722 723 756 755
4 723 724 757 756
4 724 725 758 757
4 726 727 760 759
4 727 728 761 760
4 728 729 762 761
4 729 730 763 762
4 730 731 764 763
4 731 732 765 764
4 732 733 766 765
4 733 734 767 766
4 734 735 768 767
4 735 736 769 768
4 736 737 770 769
4 737 738 771 770
4 738 739 772 771
4 739 740 773 772
4 740 741 774 773
4 741 742 775 774
4 742 743 776 775
4 743 744 777 776
4 744 745 778 777
4 745 746 779 778
4 746 747 780 779
4 747 748 781 780
4 748 749 782 781
4 749 750 783 782
4 750 751 784 783
4 751 752 785 784
4 752 753 786 785
4 753 754 787 786
4 754 755 788 787
4 755 756 789 788
4 756 757 790 789
4 757 758 791 790
4 759 760 793 792
4 760 761 794 793
4 761 762 795 794
4 762 763 796 795
4 763 764 797 796
4 764 765 798 797
4 765 766 799 798
4 766 767 800 799
4 767 768 801 800
4 768 769 802 801
4 769 770 803 802
4 770 771 804 803
4 771 772 805 804
4 772 773 806 805
4 773 774 807 806
4 774 775 808 807
4 775 776 809 808
4 776 777 810 809
4 777 778 811 810
4 778 779 812 811
4 779 780 813 812
4 780 781 814 813
4 781 782 815 814
4 782 783 816 815
4 783 784 817 816
4 784 785 818 817
4 785 786 819 818
4 786 787 820 819
4 787 788 821 820
4 788 789 822 821
4 789 790 823 822
4 790 791 824 823
4 792 793 826 825
4 793 794 827 826
4 794 795 828 827
4 795 796 829 828
4 796 797 830 829
4 797 798 831 830
4 798 799 832 831
4 799 800 833 832
4 800 801 834 833
4 801 802 835 834
4 802 803 836 835
4 803 804 837 836
4 804 805 838 837
4 805 806 839 838
4 806 807 840 839
4 807 808 841 840
4 808 809 842 841
4 809 810 843 842
4 810 811 844 843
4 811 812 845 844
4 812 813 846 845
4 813 814 847 846
4 814 815 848 847
4 815 816 849 848
4 816 817 850 849
4 817 818 851 850
4 818 819 852 851
4 819 820 853 852
4 820 821 854 853
4 821 822 855 854
4 822 823 856 855
4 823 824 857 856
4 825 826 859 858
4 826 827 860 859
4 827 828 861 860
4 828 829 862 861
4 829 830 863 862
4 830 831 864 863
4 831 832 865 864
4 832 833 866 865
4 833 834 867 866
4 834 835 868 867
4 835 836 869 868
4 836 837 870 869
4 837 838 871 870
4 838 839 872 871
4 839 840 873 872
4 840 841 874 873
4 841 842 875 874
4 842 843 876 875
4 843 844 877 876
4 844 845 878 877
4 845 846 879 878
4 846 847 880 879
4 847 848 881 880
4 848 849 882 881
4 849 850 883 882
4 850 851 884 883
4 851 852 885 884
4 852 853 886 885
4 853 854 887 886
4 854 855 888 887
4 855 856 889 888
4 856 857 890 889
4 858 859 892 891
4 859 860 893 892
4 860 861 894 893
4 861 862 895 894
4 862 863 896 895
4 863 864 897 896
4 864 865 898 897
4 865 866 899 898
4 866 867 900 899
4 867 868 901 900
4 868 869 902 901
4 869 870 903 902
4 870 871 904 903
4 871 872 905 904
4 872 873 906 905
4 873 874 907 906
4 874 875 908 907
4 875 876 909 908
4 876 877 910 909
4 877 878 911 910
4 878 879 912 911
4 879 880 913 912
4 880 881 914 913
4 881 882 915 914
4 882 883 916 915
4 883 884 917 916
4 884 885 918 917
4 885 886 919 918
4 886 887 920 919
4 887 888 921 920
4 888 889 922 921
4 889 890 923 922
4 891 892 925 924
4 892 893 926 925
4 893 894 927 926
4 894 895 928 927
4 895 896 929 928
4 896 897 930 929
4 897 898 931 930
4 898 899 932 931
4 899 900 933 932
4 900 901 934 933
4 901 902 935 934
4 902 903 936 935
4 903 904 937 936
4 904 905 938 937
4 905 906 939 938
4 906 907 940 939
4 907 908 941 940
4 908 909 942 941
4 909 910 943 942
4 910 911 944 943
4 911 912 945 944
4 912 913 946 945
4 913 914 947 946
4 914 915 948 947
4 915 916 949 948
4 916 917 950 949
4 917 918 951 950
4 918 919 952 951
4 919 920 953 952
4 920 921 954 953
4 921 922 955 954
4 922 923 956 955
4 924 925 958 957
4 925 926 959 958
4 926 927 960 959
4 927 928 961 960
4 928 929 962 961
4 929 930 963 962
4 930 931 964 963
4 931 932 965 964
4 932 933 966 965
4 933 934 967 966
4 934 935 968 967
4 935 936 969 968
4 936 937 970 969
4 937 938 971 970
4 938 939 972 971
4 939 940 973 972
4 940 941 974 973
4 941 942 975 974
4 942 943 976 975
4 943 944 977 976
4 944 945 978 977
4 945 946 979 978
4 946 947 980 979
4 947 948 981 980
4 948 949 982 981
4 949 950 983 982
4 950 951 984 983
4 951 952 985 984
4 952 953 986 985
4 953 954 987 986
4 954 955 988 987
4 955 956 989 988
4 957 958 991 990
4 958 959 992 991
4 959 960 993 992
4 960 961 994 993
4 961 962 995 994
4 962 963 996 995
4 963 964 997 996
4 964 965 998 997
4 965 966 999 998
4 966 967 1000 999
4 967 968 1001 1000
4 968 969 1002 1001
4 969 970 1003 1002
4 970 971 1004 1003
4 971 972 1005 1004
4 972 973 1006 1005
4 973 974 1007 1006
4 974 975 1008 1007
4 975 976 1009 1008
4 976 977 1010 1009
4 977 978 1011 1010
4 978 979 1012 1011
4 979 980 1013 1012
4 980 981 1014 1013
4 981 982 1015 1014
4 982 983 1016 1015
4 983 984 1017 1016
4 984 985 1018 1017
4 985 986 1019 1018
4 986 987 1020 1019
4 987 988 1021 1020
4 988 989 1022 1021
4 990 991 1024 1023
4 991 992 1025 1024
4 992 993 1026 1025
4 993 994 1027 1026
4 994 995 1028 1027
4 995 996 1029 1028
4 996 997 1030 1029
4 997 998 1031 1030
4 998 999 1032 1031
4 999 1000 1033 1032
4 1000 1001 1034 1033
4 1001 1002 1035 1034
4 1002 1003 1036 1035
4 1003 1004 1037 1036
4 1004 1005 1038 1037
4 1005 1006 1039 1038
4 1006 1007 1040 1039
4 1007 1008 1041 1040
4 1008 1009 1042 1041
4 1009 1010 1043 1042
4 1010 1011 1044 1043
4 1011 1012 1045 1044
4 1012 1013 1046 1045
4 1013 1014 1047 1046
4 1014 1015 1048 1047
4 1015 1016 1049 1048
4 1016 1017 1050 1049
4 1017 1018 1051 1050
4 1018 1019 1052 1051
4 1019 1020 1053 1052
4 1020 1021 1054 1053
4 1021 1022 1055 1054
4 1023 1024 1057 1056
4 1024 1025 1058 1057
4 1025 1026 1059 1058
4 1026 1027 1060 1059
4 1027 1028 1061 1060
4 1028 1029 1062 1061
4 1029 1030 1063 1062
4 1030 1031 1064 1063
4 1031 1032 1065 1064
4 1032 1033 1066 1065
4 1033 1034 1067 1066
4 1034 1035 1068 1067
4 1035 1036 1069 1068
4 1036 1037 1070 1069
4 1037 1038 1071 1070
4 1038 1039 1072 1071
4 1039 1040 1073 1072
4 1040 1041 1074 1073
4 1041 1042 1075 1074
4 1042 1043 1076 1075
4 1043 1044 1077 1076
4 1044 1045 1078 1077
4 1045 1046 1079 1078
4 1046 1047 1080 1079
4 1047 1048 1081 1080
4 1048 1049 1082 1081
4 1049 1050 1083 1082
4 1050 1051 1084 1083
4 1051 1052 1085 1084
4 1052 1053 1086 1085
4 1053 1054 1087 1086
4 1054 1055 1088 1087
CELL_TYPES 1024
9
9
9
9
9
9
9
9
9
9
9
9
9
9
9
9
9
9
9
9
9
9
9
9
9
9
9
9
9
9
9
9
9
9
9
9
9
9
9
9
9
9
9
9
9
9
9
9
9
9
9
9
9
9
9
9
9
9
9
9
9
9
9
9
9
9
9
9
9
9
9
9
9
9
9
9
9
9
9
9
9
9
9
9
9
9
9
9
9
9
9
9
9
9
9
9
9
9
9
9
9
9
9
9
9
9
9
9
9
9
9
9
9
9
9
9
9
9
9
9
9
9
9
9
9
9
9
9
9
9
9
9
9
9
9
9
9
9
9
9
9
9
9
9
9
9
9
9
9
9
9
9
9
9
9
9
9
9
9
9
9
9
9
9
9
9
9
9
9
9
9
9
9
9
9
9
9
9
9
9
9
9
9
9
9
9
9
9
9
9
9
9
9
9
9
9
9
9
9
9
9
9
9
9
9
9
9
9
9
9
9
9
9
9
9
9
9
9
9
9
9
9
9
9
9
9
9
9
9
9
9
9
9
9
9
9
9
9
9
9
9
9
9
9
9
9
9
9
9
9
9
9
9
9
9
9
9
9
9
9
9
9
9
9
9
9
9
9
9
9
9
9
9
9
9
9
9
9
9
9
9
9
9
9
9
9
9
9
9
9
9
9
9
9
9
9
9
9
9
9
9
9
9
9
9
9
9
9
9
9
9
9
9
9
9
9
9
9
9
9
9
9
9
9
9
9
9
9
9
9
9
9
9
9
9
9
9
9
9
9
9
9
9
9
9
9
9
9
9
9
9
9
9
9
9
9
9
9
9
9
9
9
9
9
9
9
9
9
9
9
9
9
9
9
9
9
9
9
9
9
9
9
9
9
9
9
9
9
9
9
9
9
9
9
9
9
9
9
9
9
9
9
9
9
9
9
9
9
9
9
9
9
9
9
9
9
9
9
9
9
9
9
9
9
9
9
9
9
9
9
9
9
9
9
9
9
9
9
9
9
9
9
9
9
9
9
9
9
9
9
9
9
9
9
9
9
9
9
9
9
9
9
9
9
9
9
9
9
9
9
9
9
9
9
9
9
9
9
9
9
9
9
9
9
9
9
9
9
9
9
9
9
9
9
9
9
9
9
9
9
9
9
9
9
9
9
9
9
9
9
9
9
9
9
9
9
9
9
9
9
9
9
9
9
9
9
9
9
9
9
9
9
9
9
9
9
9
9
9
9
9
9
9
9
9
9
9
9
9
9
9
9
9
9
9
9
9
9
9
9
9
9
9
9
9
9
9
9
9
9
9
9
9
9
9
9
9
9
9
9
9
9
9
9
9
9
9
9
9
9
9
9
9
9
9
9
9
9
9
9
9
9
9
9
9
9
9
9
9
9
9
9
9
9
9
9
9
9
9
9
9
9
9
9
9
9
9
9
9
9
9
9
9
9
9
9
9
9
9
9
9
9
9
9
9
9
9
9
9
9
9
9
9
9
9
9
9
9
9
9
9
9
9
9
9
9
9
9
9
9
9
9
9
9
9
9
9
9
9
9
9
9
9
9
9
9
9
9
9
9
9
9
9
9
9
9
9
9
9
9
9
9
9
9
9
9
9
9
9
9
9
9
9
9
9
9
9
9
9
9
9
9
9
9
9
9
9
9
9
9
9
9
9
9
9
9
9
9
9
9
9
9
9
9
9
9
9
9
9
9
9
9
9
9
9
9
9
9
9
9
9
9
9
9
9
9
9
9
9
9
9
9
9
9
9
9
9
9
9
9
9
9
9
9
9
9
9
9
9
9
9
9
9
9
9
9
9
9
9
9
9
9
9
9
9
9
9
9
9
9
9
9
9
9
9
9
9
9
9
9
9
9
9
9
9
9
9
9
9
9
9
9
9
9
9
9
9
9
9
9
9
9
9
9
9
9
9
9
9
9
9
9
9
9
9
9
9
9
9
9
9
9
9
9
9
9
9
9
9
9
9
9
9
9
9
9
9
9
9
9
9
9
9
9
9
9
9
9
9
9
9
9
9
9
9
9
9
9
9
9
9
9
9
9
9
9
9
9
9
9
9
9
9
9
9
9
9
9
9
9
9
9
9
9
9
9
9
9
9
9
9
9
9
9
9
9
9
9
9
9
9
9
9
9
9
9
9
9
9
9
9
9
9
9
9
9
9
9
9
9
9
9
9
9
9
9
9
9
9
9
9
9
9
9
9
9
9
9
9
9
9
9
9
9
9
9
9
9
9
9
9
9
9
9
9
9
9
9
9
9
9
9
9
9
9
9
9
9
9
9
9
9
9
9
9
9
9
9
9
9
9
9
9
9
POINT_DATA 1089
VECTORS Displacement float
0 0 0
0 0 0
0 0 0
0 0 0
0 0 0
0 0 0
0 0 0
0 0 0
0 0 0
0 0 0
0 0 0
0 0 0
0 0 0
0 0 0
0 0 0
0 0 0
0 0 0
0 0 0
0 0 0
0 0 0
0 0 0
0 0 0
0 0 0
0 0 0
0 0 0
0 0 0
0 0 0
0 0 0
0 0 0
0 0 0
0 0 0
0 0 0
0 0 0
0 0 0
0 0 -7.68172e-08
0 0 -3.14302e-07
0 0 -6.86643e-07
0 0 -1.13791e-06
0 0 -1.62705e-06
0 0 -2.12411e-06
0 0 -2.60798e-06
0 0 -3.06364e-06
0 0 -3.48058e-06
0 0 -3.8514e-06
0 0 -4.17102e-06
0 0 -4.43596e-06
0 0 -4.64388e-06
0 0 -4.79328e-06
0 0 -4.88325e-06
0 0 -4.9133e-06
0 0 -4.88325e-06
0 0 -4.79328e-06
0 0 -4.64388e-06
0 0 -4.43596e-06
0 0 -4.17102e-06
0 0 -3.8514e-06
0 0 -3.48058e-06
0 0 -3.06364e-06
0 0 -2.60798e-06
0 0 -2.12411e-06
0 0 -1.62705e-06
0 0 -1.13791e-06
0 0 -6.86643e-07
0 0 -3.14302e-07
0 0 -7.68172e-08
0 0 0
0 0 0
0 0 -3.14302e-07
0 0 -1.22115e-06
0 0 -2.59149e-06
0 0 -4.25081e-06
0 0 -6.05543e-06
0 0 -7.89765e-06
0 0 -9.69843e-06
0 0 -1.14006e-05
0 0 -1.29629e-05
0 0 -1.43561e-05
0 0 -1.55594e-05
0 0 -1.65586e-05
0 0 -1.73438e-05
0 0 -1.79086e-05
0 0 -1.82489e-05
0 0 -1.83626e-05
0 0 -1.82489e-05
0 0 -1.79086e-05
0 0 -1.73438e-05
0 0 -1.65586e-05
0 0 -1.55594e-05
0 0 -1.43561e-05
0 0 -1.29629e-05
0 0 -1.14006e-05
0 0 -9.69843e-06
0 0 -7.89765e-06
0 0 -6.05543e-06
0 0 -4.25081e-06
0 0 -2.59149e-06
0 0 -1.22115e-06
0 0 -3.14302e-07
0 0 0
0 0 0
0 0 -6.86643e-07
0 0 -2.59149e-06
0 0 -5.39265e-06
0 0 -8.77162e-06
0 0 -1.24562e-05
0 0 -1.62332e-05
0 0 -1.9941e-05
0 0 -2.34595e-05
0 0 -2.67001e-05
0 0 -2.95982e-05
0 0 -3.21075e-05
0 0 -3.41951e-05
0 0 -3.58382e-05
0 0 -3.70214e-05
0 0 -3.77349e-05
0 0 -3.79733e-05
0 0 -3.77349e-05
0 0 -3.70214e-05
0 0 -3.58382e-05
0 0 -3.41951e-05
0 0 -3.21075e-05
0 0 -2.95982e-05
0 0 -2.67001e-05
0 0 -2.34595e-05
0 0 -1.9941e-05
0 0 -1.62332e-05
0 0 -1.24562e-05
0 0 -8.77162e-06
0 0 -5.39265e-06
0 0 -2.59149e-06
0 0 -6.86643e-07
0 0 0
0 0 0
0 0 -1.13791e-06
0 0 -4.25081e-06
0 0 -8.77162e-06
0 0 -1.42057e-05
0 0 -2.01389e-05
0 0 -2.62391e-05
0 0 -3.22481e-05
0 0 -3.79691e-05
0 0 -4.32538e-05
0 0 -4.79925e-05
0 0 -5.21045e-05
0 0 -5.55317e-05
0 0 -5.8233e-05
0 0 -6.01802e-05
0 0 -6.13552e-05
0 0 -6.17479e-05
0 0 -6.13552e-05
0 0 -6.01802e-05
0 0 -5.8233e-05
0 0 -5.55317e-05
0 0 -5.21045e-05
0 0 -4.79925e-05
0 0 -4.32538e-05
0 0 -3.79691e-05
0 0 -3.22481e-05
0 0 -2.62391e-05
0 0 -2.01389e-05
0 0 -1.42057e-05
0 0 -8.77162e-06
0 0 -4.25081e-06
0 0 -1.13791e-06
0 0 0
0 0 0
0 0 -1.62705e-06
0 0 -6.05543e-06
0 0 -1.24562e-05
0 0 -2.01389e-05
0 0 -2.85354e-05
0 0 -3.71873e-05
0 0 -4.57327e-05
0 0 -5.38902e-05
0 0 -6.14448e-05
0 0 -6.82338e-05
0 0 -7.41364e-05
0 0 -7.90638e-05
0 0 -8.29524e-05
0 0 -8.57581e-05
0 0 -8.74523e-05
0 0 -8.80187e-05
0 0 -8.74523e-05
0 0 -8.57581e-05
0 0 -8.29524e-05
0 0 -7.90638e-05
0 0 -7.41364e-05
0 0 -6.82338e-05
0 0 -6.14448e-05
0 0 -5.38902e-05
0 0 -4.57327e-05
0 0 -3.71873e-05
0 0 -2.85354e-05
0 0 -2.01389e-05
0 0 -1.24562e-05
0 0 -6.05543e-06
0 0 -1.62705e-06
0 0 0
0 0 0
0 0 -2.12411e-06
0 0 -7.89765e-06
0 0 -1.62332e-05
0 0 -2.62391e-05
0 0 -3.71873e-05
0 0 -4.84895e-05
0 0 -5.96764e-05
0 0 -7.0379e-05
0 0 -8.03112e-05
0 0 -8.92539e-05
0 0 -9.70416e-05
0 0 -0.000103552
0 0 -0.000108695
0 0 -0.000112409
0 0 -0.000114653
0 0 -0.000115404
0 0 -0.000114653
0 0 -0.000112409
0 0 -0.000108695
0 0 -0.000103552
0 0 -9.70416e-05
0 0 -8.92539e-05
0 0 -8.03112e-05
0 0 -7.0379e-05
0 0 -5.96764e-05
0 0 -4.84895e-05
0 0 -3.71873e-05
0 0 -2.62391e-05
0 0 -1.62332e-05
0 0 -7.89765e-06
0 0 -2.12411e-06
0 0 0
0 0 0
0 0 -2.60798e-06
0 0 -9.69843e-06
0 0 -1.9941e-05
0 0 -3.22481e-05
0 0 -4.57327e-05
0 0 -5.96764e-05
0 0 -7.35029e-05
0 0 -8.67551e-05
0 0 -9.90748e-05
0 0 -0.000110185
0 0 -0.000119873
0 0 -0.000127982
0 0 -0.000134394
0 0 -0.000139028
0 0 -0.000141829
0 0 -0.000142766
0 0 -0.000141829
0 0 -0.000139028
0 0 -0.000134394
0 0 -0.000127982
0 0 -0.000119873
0 0 -0.000110185
0 0 -9.90748e-05
0 0 -8.67551e-05
0 0 -7.35029e-05
0 0 -5.96764e-05
0 0 -4.57327e-05
0 0 -3.22481e-05
0 0 -1.9941e-05
0 0 -9.69843e-06
0 0 -2.60798e-06
0 0 0
0 0 0
0 0 -3.06364e-06
0 0 -1.14006e-05
0 0 -2.34595e-05
0 0 -3.79691e-05
0 0 -5.38902e-05
0 0 -7.0379e-05
0 0 -8.67551e-05
0 0 -0.000102475
0 0 -0.000117111
0 0 -0.000130327
0 0 -0.000141865
0 0 -0.000151532
0 0 -0.000159183
0 0 -0.000164715
0 0 -0.00016806
0 0 -0.00016918
0 0 -0.00016806
0 0 -0.000164715
0 0 -0.000159183
0 0 -0.000151532
0 0 -0.000141865
0 0 -0.000130327
0 0 -0.000117111
0 0 -0.000102475
0 0 -8.67551e-05
0 0 -7.0379e-05
0 0 -5.38902e-05
0 0 -3.79691e-05
0 0 -2.34595e-05
0 0 -1.14006e-05
0 0 -3.06364e-06
0 0 0
0 0 0
0 0 -3.48058e-06
0 0 -1.29629e-05
0 0 -2.67001e-05
0 0 -4.32538e-05
0 0 -6.14448e-05
0 0 -8.03112e-05
0 0 -9.90748e-05
0 0 -0.000117111
0 0 -0.000133923
0 0 -0.000149122
0 0 -0.000162405
0 0 -0.000173542
0 0 -0.000182363
0 0 -0.000188744
0 0 -0.000192604
0 0 -0.000193896
0 0 -0.000192604
0 0 -0.000188744
0 0 -0.000182363
0 0 -0.000173542
0 0 -0.000162405
0 0 -0.000149122
0 0 -0.000133923
0 0 -0.000117111
0 0 -9.90748e-05
0 0 -8.03112e-05
0 0 -6.14448e-05
0 0 -4.32538e-05
0 0 -2.67001e-05
0 0 -1.29629e-05
0 0 -3.48058e-06
0 0 0
0 0 0
0 0 -3.8514e-06
0 0 -1.43561e-05
0 0 -2.95982e-05
0 0 -4.79925e-05
0 0 -6.82338e-05
0 0 -8.92539e-05
0 0 -0.000110185
0 0 -0.000130327
0 0 -0.000149122
0 0 -0.000166129
0 0 -0.000181004
0 0 -0.000193486
0 0 -0.000203377
0 0 -0.000210536
0 0 -0.000214867
0 0 -0.000216317
0 0 -0.000214867
0 0 -0.000210536
0 0 -0.000203377
0 0 -0.000193486
0 0 -0.000181004
0 0 -0.000166129
0 0 -0.000149122
0 0 -0.000130327
0 0 -0.000110185
0 0 -8.92539e-05
0 0 -6.82338e-05
0 0 -4.79925e-05
0 0 -2.95982e-05
0 0 -1.43561e-05
0 0 -3.8514e-06
0 0 0
0 0 0
0 0 -4.17102e-06
0 0 -1.55594e-05
0 0 -3.21075e-05
0 0 -5.21045e-05
0 0 -7.41364e-05
0 0 -9.70416e-05
0 0 -0.000119873
0 0 -0.000141865
0 0 -0.000162405
0 0 -0.000181004
0 0 -0.000197284
0 0 -0.000210952
0 0 -0.000221788
0 0 -0.000229633
0 0 -0.000234381
0 0 -0.000235971
0 0 -0.000234381
0 0 -0.000229633
0 0 -0.000221788
0 0 -0.000210952
0 0 -0.000197284
0 0 -0.000181004
0 0 -0.000162405
0 0 -0.000141865
0 0 -0.000119873
0 0 -9.70416e-05
0 0 -7.41364e-05
0 0 -5.21045e-05
0 0 -3.21075e-05
0 0 -1.55594e-05
0 0 -4.17102e-06
0 0 0
0 0 0
0 0 -4.43596e-06
0 0 -1.65586e-05
0 0 -3.41951e-05
0 0 -5.55317e-05
0 0 -7.90638e-05
0 0 -0.000103552
0 0 -0.000127982
0 0 -0.000151532
0 0 -0.000173542
0 0 -0.000193486
0 0 -0.000210952
0 0 -0.000225622
0 0 -0.000237257
0 0 -0.000245683
0 0 -0.000250784
0 0 -0.000252491
0 0 -0.000250784
0 0 -0.000245683
0 0 -0.000237257
0 0 -0.000225622
0 0 -0.000210952
0 0 -0.000193486
0 0 -0.000173542
0 0 -0.000151532
0 0 -0.000127982
0 0 -0.000103552
0 0 -7.90638e-05
0 0 -5.55317e-05
0 0 -3.41951e-05
0 0 -1.65586e-05
0 0 -4.43596e-06
0 0 0
0 0 0
0 0 -4.64388e-06
0 0 -1.73438e-05
0 0 -3.58382e-05
0 0 -5.8233e-05
0 0 -8.29524e-05
0 0 -0.000108695
0 0 -0.000134394
0 0 -0.000159183
0 0 -0.000182363
0 0 -0.000203377
0 0 -0.000221788
0 0 -0.000237257
0 0 -0.000249529
0 0 -0.000258419
0 0 -0.000263801
0 0 -0.000265602
0 0 -0.000263801
0 0 -0.000258419
0 0 -0.000249529
0 0 -0.000237257
0 0 -0.000221788
0 0 -0.000203377
0 0 -0.000182363
0 0 -0.000159183
0 0 -0.000134394
0 0 -0.000108695
0 0 -8.29524e-05
0 0 -5.8233e-05
0 0 -3.58382e-05
0 0 -1.73438e-05
0 0 -4.64388e-06
0 0 0
0 0 0
0 0 -4.79328e-06
0 0 -1.79086e-05
0 0 -3.70214e-05
0 0 -6.01802e-05
0 0 -8.57581e-05
0 0 -0.000112409
0 0 -0.000139028
0 0 -0.000164715
0 0 -0.000188744
0 0 -0.000210536
0 0 -0.000229633
0 0 -0.000245683
0 0 -0.000258419
0 0 -0.000267645
0 0 -0.000273232
0 0 -0.000275102
0 0 -0.000273232
0 0 -0.000267645
0 0 -0.000258419
0 0 -0.000245683
0 0 -0.000229633
0 0 -0.000210536
0 0 -0.000188744
0 0 -0.000164715
0 0 -0.000139028
0 0 -0.000112409
0 0 -8.57581e-05
0 0 -6.01802e-05
0 0 -3.70214e-05
0 0 -1.79086e-05
0 0 -4.79328e-06
0 0 0
0 0 0
0 0 -4.88325e-06
0 0 -1.82489e-05
0 0 -3.77349e-05
0 0 -6.13552e-05
0 0 -8.74523e-05
0 0 -0.000114653
0 0 -0.000141829
0 0 -0.00016806
0 0 -0.000192604
0 0 -0.000214867
0 0 -0.000234381
0 0 -0.000250784
0 0 -0.000263801
0 0 -0.000273232
0 0 -0.000278943
0 0 -0.000280855
0 0 -0.000278943
0 0 -0.000273232
0 0 -0.000263801
0 0 -0.000250784
0 0 -0.000234381
0 0 -0.000214867
0 0 -0.000192604
0 0 -0.00016806
0 0 -0.000141829
0 0 -0.000114653
0 0 -8.74523e-05
0 0 -6.13552e-05
0 0 -3.77349e-05
0 0 -1.82489e-05
0 0 -4.88325e-06
0 0 0
0 0 0
0 0 -4.9133e-06
0 0 -1.83626e-05
0 0 -3.79733e-05
0 0 -6.17479e-05
0 0 -8.80187e-05
0 0 -0.000115404
0 0 -0.000142766
0 0 -0.00016918
0 0 -0.000193896
0 0 -0.000216317
0 0 -0.000235971
0 0 -0.000252491
0 0 -0.000265602
0 0 -0.000275102
0 0 -0.000280855
0 0 -0.000282781
0 0 -0.000280855
0 0 -0.000275102
0 0 -0.000265602
0 0 -0.000252491
0 0 -0.000235971
0 0 -0.000216317
0 0 -0.000193896
0 0 -0.00016918
0 0 -0.000142766
0 0 -0.000115404
0 0 -8.80187e-05
0 0 -6.17479e-05
0 0 -3.79733e-05
0 0 -1.83626e-05
0 0 -4.9133e-06
0 0 0
0 0 0
0 0 -4.88325e-06
0 0 -1.82489e-05
0 0 -3.77349e-05
0 0 -6.13552e-05
0 0 -8.74523e-05
0 0 -0.000114653
0 0 -0.000141829
0 0 -0.00016806
0 0 -0.000192604
0 0 -0.000214867
0 0 -0.000234381
0 0 -0.000250784
0 0 -0.000263801
0 0 -0.000273232
0 0 -0.000278943
0 0 -0.000280855
0 0 -0.000278943
0 0 -0.000273232
0 0 -0.000263801
0 0 -0.000250784
0 0 -0.000234381
0 0 -0.000214867
0 0 -0.000192604
0 0 -0.00016806
0 0 -0.000141829
0 0 -0.000114653
0 0 -8.74523e-05
0 0 -6.13552e-05
0 0 -3.77349e-05
0 0 -1.82489e-05
0 0 -4.88325e-06
0 0 0
0 0 0
0 0 -4.79328e-06
0 0 -1.79086e-05
0 0 -3.70214e-05
0 0 -6.01802e-05
0 0 -8.57581e-05
0 0 -0.000112409
0 0 -0.000139028
0 0 -0.000164715
0 0 -0.000188744
0 0 -0.000210536
0 0 -0.000229633
0 0 -0.000245683
0 0 -0.000258419
0 0 -0.000267645
0 0 -0.000273232
0 0 -0.000275102
0 0 -0.000273232
0 0 -0.000267645
0 0 -0.000258419
0 0 -0.000245683
0 0 -0.000229633
0 0 -0.000210536
0 0 -0.000188744
0 0 -0.000164715
0 0 -0.000139028
0 0 -0.000112409
0 0 -8.57581e-05
0 0 -6.01802e-05
0 0 -3.70214e-05
0 0 -1.79086e-05
0 0 -4.79328e-06
0 0 0
0 0 0
0 0 -4.64388e-06
0 0 -1.73438e-05
0 0 -3.58382e-05
0 0 -5.8233e-05
0 0 -8.29524e-05
0 0 -0.000108695
0 0 -0.000134394
0 0 -0.000159183
0 0 -0.000182363
0 0 -0.000203377
0 0 -0.000221788
0 0 -0.000237257
0 0 -0.000249529
0 0 -0.000258419
0 0 -0.000263801
0 0 -0.000265602
0 0 -0.000263801
0 0 -0.000258419
0 0 -0.000249529
0 0 -0.000237257
0 0 -0.000221788
0 0 -0.000203377
0 0 -0.000182363
0 0 -0.000159183
0 0 -0.000134394
0 0 -0.000108695
0 0 -8.29524e-05
0 0 -5.8233e-05
0 0 -3.58382e-05
0 0 -1.73438e-05
0 0 -4.64388e-06
0 0 0
0 0 0
0 0 -4.43596e-06
0 0 -1.65586e-05
0 0 -3.41951e-05
0 0 -5.55317e-05
0 0 -7.90638e-05
0 0 -0.000103552
0 0 -0.000127982
0 0 -0.000151532
0 0 -0.000173542
0 0 -0.000193486
0 0 -0.000210952
0 0 -0.000225622
0 0 -0.000237257
0 0 -0.000245683
0 0 -0.000250784
0 0 -0.000252491
0 0 -0.000250784
0 0 -0.000245683
0 0 -0.000237257
0 0 -0.000225622
0 0 -0.000210952
0 0 -0.000193486
0 0 -0.000173542
0 0 -0.000151532
0 0 -0.000127982
0 0 -0.000103552
0 0 -7.90638e-05
0 0 -5.55317e-05
0 0 -3.41951e-05
0 0 -1.65586e-05
0 0 -4.43596e-06
0 0 0
0 0 0
0 0 -4.17102e-06
0 0 -1.55594e-05
0 0 -3.21075e-05
0 0 -5.21045e-05
0 0 -7.41364e-05
0 0 -9.70416e-05
0 0 -0.000119873
0 0 -0.000141865
0 0 -0.000162405
0 0 -0.000181004
0 0 -0.000197284
0 0 -0.000210952
0 0 -0.000221788
0 0 -0.000229633
0 0 -0.000234381
0 0 -0.000235971
0 0 -0.000234381
0 0 -0.000229633
0 0 -0.000221788
0 0 -0.000210952
0 0 -0.000197284
0 0 -0.000181004
0 0 -0.000162405
0 0 -0.000141865
0 0 -0.000119873
0 0 -9.70416e-05
0 0 -7.41364e-05
0 0 -5.21045e-05
0 0 -3.21075e-05
0 0 -1.55594e-05
0 0 -4.17102e-06
0 0 0
0 0 0
0 0 -3.8514e-06
0 0 -1.43561e-05
0 0 -2.95982e-05
0 0 -4.79925e-05
0 0 -6.82338e-05
0 0 -8.92539e-05
0 0 -0.000110185
0 0 -0.000130327
0 0 -0.000149122
0 0 -0.000166129
0 0 -0.000181004
0 0 -0.000193486
0 0 -0.000203377
0 0 -0.000210536
0 0 -0.000214867
0 0 -0.000216317
0 0 -0.000214867
0 0 -0.000210536
0 0 -0.000203377
0 0 -0.000193486
0 0 -0.000181004
0 0 -0.000166129
0 0 -0.000149122
0 0 -0.000130327
0 0 -0.000110185
0 0 -8.92539e-05
0 0 -6.82338e-05
0 0 -4.79925e-05
0 0 -2.95982e-05
0 0 -1.43561e-05
0 0 -3.8514e-06
0 0 0
0 0 0
0 0 -3.48058e-06
0 0 -1.29629e-05
0 0 -2.67001e-05
0 0 -4.32538e-05
0 0 -6.14448e-05
0 0 -8.03112e-05
0 0 -9.90748e-05
0 0 -0.000117111
0 0 -0.000133923
0 0 -0.000149122
0 0 -0.000162405
0 0 -0.000173542
0 0 -0.000182363
0 0 -0.000188744
0 0 -0.000192604
0 0 -0.000193896
0 0 -0.000192604
0 0 -0.000188744
0 0 -0.000182363
0 0 -0.000173542
0 0 -0.000162405
0 0 -0.000149122
0 0 -0.000133923
0 0 -0.000117111
0 0 -9.90748e-05
0 0 -8.03112e-05
0 0 -6.14448e-05
0 0 -4.32538e-05
0 0 -2.67001e-05
0 0 -1.29629e-05
0 0 -3.48058e-06
0 0 0
0 0 0
0 0 -3.06364e-06
0 0 -1.14006e-05
0 0 -2.34595e-05
0 0 -3.79691e-05
0 0 -5.38902e-05
0 0 -7.0379e-05
0 0 -8.67551e-05
0 0 -0.000102475
0 0 -0.000117111
0 0 -0.000130327
0 0 -0.000141865
0 0 -0.000151532
0 0 -0.000159183
0 0 -0.000164715
0 0 -0.00016806
0 0 -0.00016918
0 0 -0.00016806
0 0 -0.000164715
0 0 -0.000159183
0 0 -0.000151532
0 0 -0.000141865
0 0 -0.000130327
0 0 -0.000117111
0 0 -0.000102475
0 0 -8.67551e-05
0 0 -7.0379e-05
0 0 -5.38902e-05
0 0 -3.79691e-05
0 0 -2.34595e-05
0 0 -1.14006e-05
0 0 -3.06364e-06
0 0 0
0 0 0
0 0 -2.60798e-06
0 0 -9.69843e-06
0 0 -1.9941e-05
0 0 -3.22481e-05
0 0 -4.57327e-05
0 0 -5.96764e-05
0 0 -7.35029e-05
0 0 -8.67551e-05
0 0 -9.90748e-05
0 0 -0.000110185
0 0 -0.000119873
0 0 -0.000127982
0 0 -0.000134394
0 0 -0.000139028
0 0 -0.000141829
0 0 -0.000142766
0 0 -0.000141829
0 0 -0.000139028
0 0 -0.000134394
0 0 -0.000127982
0 0 -0.000119873
0 0 -0.000110185
0 0 -9.90748e-05
0 0 -8.67551e-05
0 0 -7.35029e-05
0 0 -5.96764e-05
0 0 -4.57327e-05
0 0 -3.22481e-05
0 0 -1.9941e-05
0 0 -9.69843e-06
0 0 -2.60798e-06
0 0 0
0 0 0
0 0 -2.12411e-06
0 0 -7.89765e-06
0 0 -1.62332e-05
0 0 -2.62391e-05
0 0 -3.71873e-05
0 0 -4.84895e-05
0 0 -5.96764e-05
0 0 -7.0379e-05
0 0 -8.03112e-05
0 0 -8.92539e-05
0 0 -9.70416e-05
0 0 -0.000103552
0 0 -0.000108695
0 0 -0.000112409
0 0 -0.000114653
0 0 -0.000115404
0 0 -0.000114653
0 0 -0.000112409
0 0 -0.000108695
0 0 -0.000103552
0 0 -9.70416e-05
0 0 -8.92539e-05
0 0 -8.03112e-05
0 0 -7.0379e-05
0 0 -5.96764e-05
0 0 -4.84895e-05
0 0 -3.71873e-05
0 0 -2.62391e-05
0 0 -1.62332e-05
0 0 -7.89765e-06
0 0 -2.12411e-06
0 0 0
0 0 0
0 0 -1.62705e-06
0 0 -6.05543e-06
0 0 -1.24562e-05
0 0 -2.01389e-05
0 0 -2.85354e-05
0 0 -3.71873e-05
0 0 -4.57327e-05
0 0 -5.38902e-05
0 0 -6.14448e-05
0 0 -6.82338e-05
0 0 -7.41364e-05
0 0 -7.90638e-05
0 0 -8.29524e-05
0 0 -8.57581e-05
0 0 -8.74523e-05
0 0 -8.80187e-05
0 0 -8.74523e-05
0 0 -8.57581e-05
0 0 -8.29524e-05
0 0 -7.90638e-05
0 0 -7.41364e-05
0 0 -6.82338e-05
0 0 -6.14448e-05
0 0 -5.38902e-05
0 0 -4.57327e-05
0 0 -3.71873e-05
0 0 -2.85354e-05
0 0 -2.01389e-05
0 0 -1.24562e-05
0 0 -6.05543e-06
0 0 -1.62705e-06
0 0 0
0 0 0
0 0 -1.13791e-06
0 0 -4.25081e-06
0 0 -8.77162e-06
0 0 -1.42057e-05
0 0 -2.01389e-05
0 0 -2.62391e-05
0 0 -3.22481e-05
0 0 -3.79691e-05
0 0 -4.32538e-05
0 0 -4.79925e-05
0 0 -5.21045e-05
0 0 -5.55317e-05
0 0 -5.8233e-05
0 0 -6.01802e-05
0 0 -6.13552e-05
0 0 -6.17479e-05
0 0 -6.13552e-05
0 0 -6.01802e-05
0 0 -5.8233e-05
0 0 -5.55317e-05
0 0 -5.21045e-05
0 0 -4.79925e-05
0 0 -4.32538e-05
0 0 -3.79691e-05
0 0 -3.22481e-05
0 0 -2.62391e-05
0 0 -2.01389e-05
0 0 -1.42057e-05
0 0 -8.77162e-06
0 0 -4.25081e-06
0 0 -1.13791e-06
0 0 0
0 0 0
0 0 -6.86643e-07
0 0 -2.59149e-06
0 0 -5.39265e-06
0 0 -8.77162e-06
0 0 -1.24562e-05
0 0 -1.62332e-05
0 0 -1.9941e-05
0 0 -2.34595e-05
0 0 -2.67001e-05
0 0 -2.95982e-05
0 0 -3.21075e-05
0 0 -3.41951e-05
0 0 -3.58382e-05
0 0 -3.70214e-05
0 0 -3.77349e-05
0 0 -3.79733e-05
0 0 -3.77349e-05
0 0 -3.70214e-05
0 0 -3.58382e-05
0 0 -3.41951e-05
0 0 -3.21075e-05
0 0 -2.95982e-05
0 0 -2.67001e-05
0 0 -2.34595e-05
0 0 -1.9941e-05
0 0 -1.62332e-05
0 0 -1.24562e-05
0 0 -8.77162e-06
0 0 -5.39265e-06
0 0 -2.59149e-06
0 0 -6.86643e-07
0 0 0
0 0 0
0 0 -3.14302e-07
0 0 -1.22115e-06
0 0 -2.59149e-06
0 0 -4.25081e-06
0 0 -6.05543e-06
0 0 -7.89765e-06
0 0 -9.69843e-06
0 0 -1.14006e-05
0 0 -1.29629e-05
0 0 -1.43561e-05
0 0 -1.55594e-05
0 0 -1.65586e-05
0 0 -1.73438e-05
0 0 -1.79086e-05
0 0 -1.82489e-05
0 0 -1.83626e-05
0 0 -1.82489e-05
0 0 -1.79086e-05
0 0 -1.73438e-05
0 0 -1.65586e-05
0 0 -1.55594e-05
0 0 -1.43561e-05
0 0 -1.29629e-05
0 0 -1.14006e-05
0 0 -9.69843e-06
0 0 -7.89765e-06
0 0 -6.05543e-06
0 0 -4.25081e-06
0 0 -2.59149e-06
0 0 -1.22115e-06
0 0 -3.14302e-07
0 0 0
0 0 0
0 0 -7.68172e-08
0 0 -3.14302e-07
0 0 -6.86643e-07
0 0 -1.13791e-06
0 0 -1.62705e-06
0 0 -2.12411e-06
0 0 -2.60798e-06
0 0 -3.06364e-06
0 0 -3.48058e-06
0 0 -3.8514e-06
0 0 -4.17102e-06
0 0 -4.43596e-06
0 0 -4.64388e-06
0 0 -4.79328e-06
0 0 -4.88325e-06
0 0 -4.9133e-06
0 0 -4.88325e-06
0 0 -4.79328e-06
0 0 -4.64388e-06
0 0 -4.43596e-06
0 0 -4.17102e-06
0 0 -3.8514e-06
0 0 -3.48058e-06
0 0 -3.06364e-06
0 0 -2.60798e-06
0 0 -2.12411e-06
0 0 -1.62705e-06
0 0 -1.13791e-06
0 0 -6.86643e-07
0 0 -3.14302e-07
0 0 -7.68172e-08
0 0 0
0 0 0
0 0 0
0 0 0
0 0 0
0 0 0
0 0 0
0 0 0
0 0 0
0 0 0
0 0 0
0 0 0
0 0 0
0 0 0
0 0 0
0 0 0
0 0 0
0 0 0
0 0 0
0 0 0
0 0 0
0 0 0
0 0 0
0 0 0
0 0 0
0 0 0
0 0 0
0 0 0
0 0 0
0 0 0
0 0 0
0 0 0
0 0 0
0 0 0
CELL_DATA 1024
SCALARS Stress float 1
LOOKUP_TABLE default
0
0
0
0
0
0
0
0
0
0
0
0
0
0
0
0
0
0
0
0
0
0
0
0
0
0
0
0
0
0
0
0
0.00958303
0.0160732
0.0181432
0.0189762
0.0188075
0.0180145
0.016755
0.0151765
0.013376
0.0114191
0.00936206
0.00723396
0.00506568
0.00287009
0.000663707
-0.00154541
-0.00374635
-0.00592755
-0.00807554
-0.0101666
-0.012175
-0.0140532
-0.0157477
-0.0171687
-0.0182054
-0.0186931
-0.0184001
-0.0170272
-0.0140836
-0.00913457
-0.00132488
0.0039554
0.0391507
0.0576517
0.0664963
0.0698846
0.0697727
0.0671198
0.0626828
0.056959
0.0503286
0.0430645
0.0353624
0.0273694
0.0191853
0.0108889
0.00253469
-0.0058285
-0.0141562
-0.0223978
-0.0304875
-0.0383399
-0.045831
-0.0527961
-0.0589998
-0.0641264
-0.0677392
-0.0692425
-0.0678417
-0.0624335
-0.0516776
-0.0338947
-0.0087841
0.0161249
0.0855083
0.116535
0.134661
0.142523
0.143087
0.138357
0.129741
0.118308
0.104838
0.0899149
0.0739745
0.0573347
0.0402349
0.0228511
0.0053241
-0.012229
-0.029694
-0.0469449
-0.0638276
-0.0801382
-0.0956055
-0.109859
-0.122402
-0.132565
-0.139456
-0.141899
-0.138345
-0.126844
-0.105021
-0.0705523
-0.0230142
0.0352048
0.141693
0.187628
0.215758
0.229171
0.231097
0.224373
0.211177
0.19317
0.171631
0.147526
0.121588
0.0943723
0.0662971
0.0376865
0.00879939
-0.0201391
-0.0489117
-0.0772815
-0.104964
-0.131596
-0.156704
-0.179659
-0.199631
-0.215533
-0.225946
-0.229045
-0.222529
-0.203571
-0.168927
-0.115436
-0.0404239
0.0583295
0.202598
0.265507
0.30458
0.324006
0.327733
0.31922
0.301346
0.276388
0.246134
0.211975
0.174983
0.135985
0.0956196
0.0543914
0.0127134
-0.0290512
-0.0705492
-0.1114
-0.151156
-0.18926
-0.224996
-0.25744
-0.285392
-0.307312
-0.321233
-0.324687
-0.314625
-0.287394
-0.238828
-0.164339
-0.0589164
0.0834004
0.264486
0.345626
0.39641
0.42229
0.428108
0.418043
0.395601
0.363648
0.324482
0.27992
0.231393
0.180023
0.126694
0.0721159
0.0168809
-0.038483
-0.0934623
-0.147507
-0.199982
-0.250108
-0.296908
-0.33914
-0.375221
-0.403152
-0.420427
-0.42395
-0.409954
-0.373963
-0.310745
-0.214249
-0.0773434
0.108874
0.324739
0.424604
0.487442
0.520058
0.528218
0.516846
0.490078
0.451331
0.403387
0.348486
0.288416
0.224601
0.158181
0.0900867
0.021106
-0.0480518
-0.116695
-0.184088
-0.249391
-0.311592
-0.369441
-0.421374
-0.465426
-0.499153
-0.519527
-0.522852
-0.504669
-0.459663
-0.381559
-0.262932
-0.0948435
0.133678
0.381473
0.499711
0.5746
0.614042
0.624741
0.612344
0.581596
0.536443
0.480126
0.415284
0.344051
0.268147
0.18897
0.107675
0.0252532
-0.057397
-0.139397
-0.219818
-0.297611
-0.371526
-0.440044
-0.501283
-0.552915
-0.592067
-0.615222
-0.618116
-0.595626
-0.541646
-0.448927
-0.30884
-0.111052
0.157031
0.433395
0.569084
0.655527
0.701658
0.714979
0.701827
0.66752
0.616492
0.552412
0.478292
0.396589
0.309307
0.218091
0.124317
0.029175
-0.0662471
-0.160885
-0.253616
-0.343185
-0.428114
-0.506621
-0.576527
-0.635159
-0.67925
-0.704827
-0.707099
-0.68033
-0.61769
-0.511073
-0.350861
-0.125589
0.178407
0.479565
0.631197
0.72839
0.780837
0.796764
0.78311
0.745711
0.689452
0.618387
0.535867
0.444646
0.346989
0.244771
0.139574
0.0327799
-0.0743445
-0.180556
-0.284551
-0.384875
-0.479838
-0.567415
-0.645152
-0.710066
-0.758527
-0.786153
-0.787679
-0.756821
-0.686115
-0.566734
-0.388251
-0.138374
0.197411
0.51937
0.68509
0.791849
0.850019
0.868397
0.854441
0.814439
0.753665
0.676517
0.586643
0.487062
0.380267
0.268343
0.153056
0.0359616
-0.0815088
-0.197949
-0.311889
-0.421698
-0.525489
-0.621024
-0.705606
-0.775971
-0.828179
-0.857484
-0.858209
-0.823599
-0.745658
-0.614965
-0.420466
-0.149224
0.213801
0.552354
0.729941
0.844877
0.907994
0.928561
0.914459
0.872348
0.807834
0.725603
0.629556
0.522933
0.408428
0.2883
0.164478
0.0386644
-0.0875647
-0.212663
-0.335014
-0.452834
-0.564071
-0.666302
-0.756622
-0.831534
-0.88683
-0.917463
-0.917411
-0.879532
-0.795399
-0.655126
-0.447177
-0.158165
0.227376
0.578252
0.765303
0.886776
0.953896
0.976276
0.962122
0.918388
0.85094
0.764692
0.66375
0.55153
0.430886
0.304218
0.173587
0.0408154
-0.0924044
-0.224411
-0.35347
-0.477674
-0.594836
-0.702384
-0.797249
-0.875744
-0.933451
-0.965081
-0.964342
-0.923791
-0.83467
-0.686744
-0.468126
-0.165095
0.238041
0.59685
0.790751
0.917016
0.987086
1.01083
0.996676
0.951797
0.882243
0.793097
0.68861
0.572331
0.447228
0.315807
0.180222
0.0423881
-0.0959185
-0.232951
-0.366888
-0.495732
-0.617197
-0.7286
-0.826752
-0.907831
-0.967262
-0.999585
-0.998313
-0.955786
-0.863016
-0.709526
-0.483189
-0.170078
0.245694
0.60806
0.806131
0.935294
1.00716
1.03174
1.01761
0.972043
0.901221
0.810323
0.703691
0.584951
0.457143
0.322837
0.184245
0.0433369
-0.0980588
-0.238143
-0.375042
-0.506701
-0.630773
-0.744512
-0.844653
-0.92729
-0.987756
-1.02049
-1.01887
-0.975132
-0.880133
-0.723261
-0.492248
-0.173039
0.250312
0.611795
0.811248
0.941397
1.01388
1.03874
1.02462
0.978827
0.907583
0.8161
0.70875
0.589186
0.460472
0.325199
0.1856
0.0436604
-0.098771
-0.239878
-0.37777
-0.510373
-0.635319
-0.749841
-0.850646
-0.933805
-0.994616
-1.02748
-1.02575
-0.981603
-0.885859
-0.727855
-0.495282
-0.174049
0.251846
0.60806
0.806131
0.935294
1.00716
1.03174
1.01761
0.972043
0.901221
0.810323
0.703691
0.584951
0.457143
0.322837
0.184245
0.0433369
-0.0980588
-0.238143
-0.375042
-0.506701
-0.630773
-0.744512
-0.844653
-0.92729
-0.987756
-1.02049
-1.01887
-0.975132
-0.880133
-0.723261
-0.492248
-0.173039
0.250312
0.59685
0.790751
0.917016
0.987086
1.01083
0.996676
0.951797
0.882243
0.793097
0.68861
0.572331
0.447228
0.315807
0.180222
0.0423881
-0.0959185
-0.232951
-0.366888
-0.495732
-0.617197
-0.7286
-0.826752
-0.907831
-0.967262
-0.999585
-0.998313
-0.955786
-0.863016
-0.709526
-0.483189
-0.170078
0.245694
0.578252
0.765303
0.886776
0.953896
0.976276
0.962122
0.918388
0.85094
0.764692
0.66375
0.55153
0.430886
0.304218
0.173587
0.0408154
-0.0924044
-0.224411
-0.35347
-0.477674
-0.594836
-0.702384
-0.797249
-0.875744
-0.933451
-0.965081
-0.964342
-0.923791
-0.83467
-0.686744
-0.468126
-0.165095
0.238041
0.552354
0.729941
0.844877
0.907994
0.928561
0.914459
0.872348
0.807834
0.725603
0.629556
0.522933
0.408428
0.2883
0.164478
0.0386644
-0.0875647
-0.212663
-0.335014
-0.452834
-0.564071
-0.666302
-0.756622
-0.831534
-0.88683
-0.917463
-0.917411
-0.879532
-0.795399
-0.655126
-0.447177
-0.158165
0.227376
0.51937
0.68509
0.791849
0.850019
0.868397
0.854441
0.814439
0.753665
0.676517
0.586643
0.487062
0.380267
0.268343
0.153056
0.0359616
-0.0815088
-0.197949
-0.311889
-0.421698
-0.525489
-0.621024
-0.705606
-0.775971
-0.828179
-0.857484
-0.858209
-0.823599
-0.745658
-0.614965
-0.420466
-0.149224
0.213801
0.479565
0.631197
0.72839
0.780837
0.796764
0.78311
0.745711
0.689452
0.618387
0.535867
0.444646
0.346989
0.244771
0.139574
0.0327799
-0.0743445
-0.180556
-0.284551
-0.384875
-0.479838
-0.567415
-0.645152
-0.710066
-0.758527
-0.786153
-0.787679
-0.756821
-0.686115
-0.566734
-0.388251
-0.138374
0.197411
0.433395
0.569084
0.655527
0.701658
0.714979
0.701827
0.66752
0.616492
0.552412
0.478292
0.396589
0.309307
0.218091
0.124317
0.029175
-0.0662471
-0.160885
-0.253616
-0.343185
-0.428114
-0.506621
-0.576527
-0.635159
-0.67925
-0.704827
-0.707099
-0.68033
-0.61769
-0.511073
-0.350861
-0.125589
0.178407
0.381473
0.499711
0.5746
0.614042
0.624741
0.612344
0.581596
0.536443
0.480126
0.415284
0.344051
0.268147
0.18897
0.107675
0.0252532
-0.057397
-0.139397
-0.219818
-0.297611
-0.371526
-0.440044
-0.501283
-0.552915
-0.592067
-0.615222
-0.618116
-0.595626
-0.541646
-0.448927
-0.30884
-0.111052
0.157031
0.324739
0.424604
0.487442
0.520058
0.528218
0.516846
0.490078
0.451331
0.403387
0.348486
0.288416
0.224601
0.158181
0.0900867
0.021106
-0.0480518
-0.116695
-0.184088
-0.249391
-0.311592
-0.369441
-0.421374
-0.465426
-0.499153
-0.519527
-0.522852
-0.504669
-0.459663
-0.381559
-0.262932
-0.0948435
0.133678
0.264486
0.345626
0.39641
0.42229
0.428108
0.418043
0.395601
0.363648
0.324482
0.27992
0.231393
0.180023
0.126694
0.0721159
0.0168809
-0.038483
-0.0934623
-0.147507
-0.199982
-0.250108
-0.296908
-0.33914
-0.375221
-0.403152
-0.420427
-0.42395
-0.409954
-0.373963
-0.310745
-0.214249
-0.0773434
0.108874
0.202598
0.265507
0.30458
0.324006
0.327733
0.31922
0.301346
0.276388
0.246134
0.211975
0.174983
0.135985
0.0956196
0.0543914
0.0127134
-0.0290512
-0.0705492
-0.1114
-0.151156
-0.18926
-0.224996
-0.25744
-0.285392
-0.307312
-0.321233
-0.324687
-0.314625
-0.287394
-0.238828
-0.164339
-0.0589164
0.0834004
0.141693
0.187628
0.215758
0.229171
0.231097
0.224373
0.211177
0.19317
0.171631
0.147526
0.121588
0.0943723
0.0662971
0.0376865
0.00879939
-0.0201391
-0.0489117
-0.0772815
-0.104964
-0.131596
-0.156704
-0.179659
-0.199631
-0.215533
-0.225946
-0.229045
-0.222529
-0.203571
-0.168927
-0.115436
-0.0404239
0.0583295
0.0855083
0.116535
0.134661
0.142523
0.143087
0.138357
0.129741
0.118308
0.104838
0.0899149
0.0739745
0.0573347
0.0402349
0.0228511
0.0053241
-0.012229
-0.029694
-0.0469449
-0.0638276
-0.0801382
-0.0956055
-0.109859
-0.122402
-0.132565
-0.139456
-0.141899
-0.138345
-0.126844
-0.105021
-0.0705523
-0.0230142
0.0352048
0.0391507
0.0576517
0.0664963
0.0698846
0.0697727
0.0671198
0.0626828
0.056959
0.0503286
0.0430645
0.0353624
0.0273694
0.0191853
0.0108889
0.00253469
-0.0058285
-0.0141562
-0.0223978
-0.0304875
-0.0383399
-0.045831
-0.0527961
-0.0589998
-0.0641264
-0.0677392
-0.0692425
-0.0678417
-0.0624335
-0.0516776
-0.0338947
-0.0087841
0.0161249
0.00958303
0.0160732
0.0181432
0.0189762
0.0188075
0.0180145
0.016755
0.0151765
0.013376
0.0114191
0.00936206
0.00723396
0.00506568
0.00287009
0.000663707
-0.00154541
-0.00374635
-0.00592755
-0.00807554
-0.0101666
-0.012175
-0.0140532
-0.0157477
-0.0171687
-0.0182054
-0.0186931
-0.0184001
-0.0170272
-0.0140836
-0.00913457
-0.00132488
0.0039554
