# vtk DataFile Version 3.0
STAP++ Results
ASCII
DATASET UNSTRUCTURED_GRID
POINTS 121 float
0 0 0
0.8 0 0
1.6 0 0
2.4 0 0
3.2 0 0
4 0 0
4.8 0 0
5.6 0 0
6.4 0 0
7.2 0 0
8 0 0
0 0.8 0
0.8 0.8 0
1.6 0.8 0
2.4 0.8 0
3.2 0.8 0
4 0.8 0
4.8 0.8 0
5.6 0.8 0
6.4 0.8 0
7.2 0.8 0
8 0.8 0
0 1.6 0
0.8 1.6 0
1.6 1.6 0
2.4 1.6 0
3.2 1.6 0
4 1.6 0
4.8 1.6 0
5.6 1.6 0
6.4 1.6 0
7.2 1.6 0
8 1.6 0
0 2.4 0
0.8 2.4 0
1.6 2.4 0
2.4 2.4 0
3.2 2.4 0
4 2.4 0
4.8 2.4 0
5.6 2.4 0
6.4 2.4 0
7.2 2.4 0
8 2.4 0
0 3.2 0
0.8 3.2 0
1.6 3.2 0
2.4 3.2 0
3.2 3.2 0
4 3.2 0
4.8 3.2 0
5.6 3.2 0
6.4 3.2 0
7.2 3.2 0
8 3.2 0
0 4 0
0.8 4 0
1.6 4 0
2.4 4 0
3.2 4 0
4 4 0
4.8 4 0
5.6 4 0
6.4 4 0
7.2 4 0
8 4 0
0 4.8 0
0.8 4.8 0
1.6 4.8 0
2.4 4.8 0
3.2 4.8 0
4 4.8 0
4.8 4.8 0
5.6 4.8 0
6.4 4.8 0
7.2 4.8 0
8 4.8 0
0 5.6 0
0.8 5.6 0
1.6 5.6 0
2.4 5.6 0
3.2 5.6 0
4 5.6 0
4.8 5.6 0
5.6 5.6 0
6.4 5.6 0
7.2 5.6 0
8 5.6 0
0 6.4 0
0.8 6.4 0
1.6 6.4 0
2.4 6.4 0
3.2 6.4 0
4 6.4 0
4.8 6.4 0
5.6 6.4 0
6.4 6.4 0
7.2 6.4 0
8 6.4 0
0 7.2 0
0.8 7.2 0
1.6 7.2 0
2.4 7.2 0
3.2 7.2 0
4 7.2 0
4.8 7.2 0
5.6 7.2 0
6.4 7.2 0
7.2 7.2 0
8 7.2 0
0 8 0
0.8 8 0
1.6 8 0
2.4 8 0
3.2 8 0
4 8 0
4.8 8 0
5.6 8 0
6.4 8 0
7.2 8 0
8 8 0
CELLS 100 500
4 0 1 12 11
4 1 2 13 12
4 2 3 14 13
4 3 4 15 14
4 4 5 16 15
4 5 6 17 16
4 6 7 18 17
4 7 8 19 18
4 8 9 20 19
4 9 10 21 20
4 11 12 23 22
4 12 13 24 23
4 13 14 25 24
4 14 15 26 25
4 15 16 27 26
4 16 17 28 27
4 17 18 29 28
4 18 19 30 29
4 19 20 31 30
4 20 21 32 31
4 22 23 34 33
4 23 24 35 34
4 24 25 36 35
4 25 26 37 36
4 26 27 38 37
4 27 28 39 38
4 28 29 40 39
4 29 30 41 40
4 30 31 42 41
4 31 32 43 42
4 33 34 45 44
4 34 35 46 45
4 35 36 47 46
4 36 37 48 47
4 37 38 49 48
4 38 39 50 49
4 39 40 51 50
4 40 41 52 51
4 41 42 53 52
4 42 43 54 53
4 44 45 56 55
4 45 46 57 56
4 46 47 58 57
4 47 48 59 58
4 48 49 60 59
4 49 50 61 60
4 50 51 62 61
4 51 52 63 62
4 52 53 64 63
4 53 54 65 64
4 55 56 67 66
4 56 57 68 67
4 57 58 69 68
4 58 59 70 69
4 59 60 71 70
4 60 61 72 71
4 61 62 73 72
4 62 63 74 73
4 63 64 75 74
4 64 65 76 75
4 66 67 78 77
4 67 68 79 78
4 68 69 80 79
4 69 70 81 80
4 70 71 82 81
4 71 72 83 82
4 72 73 84 83
4 73 74 85 84
4 74 75 86 85
4 75 76 87 86
4 77 78 89 88
4 78 79 90 89
4 79 80 91 90
4 80 81 92 91
4 81 82 93 92
4 82 83 94 93
4 83 84 95 94
4 84 85 96 95
4 85 86 97 96
4 86 87 98 97
4 88 89 100 99
4 89 90 101 100
4 90 91 102 101
4 91 92 103 102
4 92 93 104 103
4 93 94 105 104
4 94 95 106 105
4 95 96 107 106
4 96 97 108 107
4 97 98 109 108
4 99 100 111 110
4 100 101 112 111
4 101 102 113 112
4 102 103 114 113
4 103 104 115 114
4 104 105 116 115
4 105 106 117 116
4 106 107 118 117
4 107 108 119 118
4 108 109 120 119
CELL_TYPES 100
9
9
9
9
9
9
9
9
9
9
9
9
9
9
9
9
9
9
9
9
9
9
9
9
9
9
9
9
9
9
9
9
9
9
9
9
9
9
9
9
9
9
9
9
9
9
9
9
9
9
9
9
9
9
9
9
9
9
9
9
9
9
9
9
9
9
9
9
9
9
9
9
9
9
9
9
9
9
9
9
9
9
9
9
9
9
9
9
9
9
9
9
9
9
9
9
9
9
9
9
POINT_DATA 121
VECTORS Displacement float
0 0 0
0 0 0
0 0 0
0 0 0
0 0 0
0 0 0
0 0 0
0 0 0
0 0 0
0 0 0
0 0 0
0 0 0
0 0 -6.63294e-06
0 0 -2.10708e-05
0 0 -3.48256e-05
0 0 -4.3923e-05
0 0 -4.70703e-05
0 0 -4.3923e-05
0 0 -3.48256e-05
0 0 -2.10708e-05
0 0 -6.63294e-06
0 0 0
0 0 0
0 0 -2.10708e-05
0 0 -6.67349e-05
0 0 -0.00011063
0 0 -0.000140207
0 0 -0.000150483
0 0 -0.000140207
0 0 -0.00011063
0 0 -6.67349e-05
0 0 -2.10708e-05
0 0 0
0 0 0
0 0 -3.48256e-05
0 0 -0.00011063
0 0 -0.000184308
0 0 -0.000234606
0 0 -0.000252207
0 0 -0.000234606
0 0 -0.000184308
0 0 -0.00011063
0 0 -3.48256e-05
0 0 0
0 0 0
0 0 -4.3923e-05
0 0 -0.000140207
0 0 -0.000234606
0 0 -0.000299411
0 0 -0.000322181
0 0 -0.000299411
0 0 -0.000234606
0 0 -0.000140207
0 0 -4.3923e-05
0 0 0
0 0 0
0 0 -4.70703e-05
0 0 -0.000150483
0 0 -0.000252207
0 0 -0.000322181
0 0 -0.000346777
0 0 -0.000322181
0 0 -0.000252207
0 0 -0.000150483
0 0 -4.70703e-05
0 0 0
0 0 0
0 0 -4.3923e-05
0 0 -0.000140207
0 0 -0.000234606
0 0 -0.000299411
0 0 -0.000322181
0 0 -0.000299411
0 0 -0.000234606
0 0 -0.000140207
0 0 -4.3923e-05
0 0 0
0 0 0
0 0 -3.48256e-05
0 0 -0.00011063
0 0 -0.000184308
0 0 -0.000234606
0 0 -0.000252207
0 0 -0.000234606
0 0 -0.000184308
0 0 -0.00011063
0 0 -3.48256e-05
0 0 0
0 0 0
0 0 -2.10708e-05
0 0 -6.67349e-05
0 0 -0.00011063
0 0 -0.000140207
0 0 -0.000150483
0 0 -0.000140207
0 0 -0.00011063
0 0 -6.67349e-05
0 0 -2.10708e-05
0 0 0
0 0 0
0 0 -6.63294e-06
0 0 -2.10708e-05
0 0 -3.48256e-05
0 0 -4.3923e-05
0 0 -4.70703e-05
0 0 -4.3923e-05
0 0 -3.48256e-05
0 0 -2.10708e-05
0 0 -6.63294e-06
0 0 0
0 0 0
0 0 0
0 0 0
0 0 0
0 0 0
0 0 0
0 0 0
0 0 0
0 0 0
0 0 0
0 0 0
CELL_DATA 100
SCALARS Stress float 1
LOOKUP_TABLE default
0
0
0
0
0
0
0
0
0
0
0.132879
0.175333
0.141523
0.0800714
0.00900143
-0.0630518
-0.128203
-0.173377
-0.155203
-0.0189736
0.422063
0.552979
0.457025
0.26108
0.029411
-0.20584
-0.416037
-0.547911
-0.492445
-0.060326
0.697604
0.920608
0.77225
0.446153
0.0503666
-0.352586
-0.705343
-0.914517
-0.814851
-0.0996854
0.879823
1.17464
0.991917
0.576427
0.0651682
-0.456123
-0.907215
-1.16923
-1.02967
-0.12574
0.942881
1.26341
1.07028
0.622565
0.0703842
-0.492702
-0.979416
-1.25857
-1.10409
-0.134735
0.879823
1.17464
0.991917
0.576427
0.0651682
-0.456123
-0.907215
-1.16923
-1.02967
-0.12574
0.697604
0.920608
0.77225
0.446153
0.0503666
-0.352586
-0.705343
-0.914517
-0.814851
-0.0996854
0.422063
0.552979
0.457025
0.26108
0.029411
-0.20584
-0.416037
-0.547911
-0.492445
-0.060326
0.132879
0.175333
0.141523
0.0800714
0.00900143
-0.0630518
-0.128203
-0.173377
-0.155203
-0.0189736
