# vtk DataFile Version 3.0
STAP++ Results
ASCII
DATASET UNSTRUCTURED_GRID
POINTS 4225 float
0 0 0
0.125 0 0
0.25 0 0
0.375 0 0
0.5 0 0
0.625 0 0
0.75 0 0
0.875 0 0
1 0 0
1.125 0 0
1.25 0 0
1.375 0 0
1.5 0 0
1.625 0 0
1.75 0 0
1.875 0 0
2 0 0
2.125 0 0
2.25 0 0
2.375 0 0
2.5 0 0
2.625 0 0
2.75 0 0
2.875 0 0
3 0 0
3.125 0 0
3.25 0 0
3.375 0 0
3.5 0 0
3.625 0 0
3.75 0 0
3.875 0 0
4 0 0
4.125 0 0
4.25 0 0
4.375 0 0
4.5 0 0
4.625 0 0
4.75 0 0
4.875 0 0
5 0 0
5.125 0 0
5.25 0 0
5.375 0 0
5.5 0 0
5.625 0 0
5.75 0 0
5.875 0 0
6 0 0
6.125 0 0
6.25 0 0
6.375 0 0
6.5 0 0
6.625 0 0
6.75 0 0
6.875 0 0
7 0 0
7.125 0 0
7.25 0 0
7.375 0 0
7.5 0 0
7.625 0 0
7.75 0 0
7.875 0 0
8 0 0
0 0.125 0
0.125 0.125 0
0.25 0.125 0
0.375 0.125 0
0.5 0.125 0
0.625 0.125 0
0.75 0.125 0
0.875 0.125 0
1 0.125 0
1.125 0.125 0
1.25 0.125 0
1.375 0.125 0
1.5 0.125 0
1.625 0.125 0
1.75 0.125 0
1.875 0.125 0
2 0.125 0
2.125 0.125 0
2.25 0.125 0
2.375 0.125 0
2.5 0.125 0
2.625 0.125 0
2.75 0.125 0
2.875 0.125 0
3 0.125 0
3.125 0.125 0
3.25 0.125 0
3.375 0.125 0
3.5 0.125 0
3.625 0.125 0
3.75 0.125 0
3.875 0.125 0
4 0.125 0
4.125 0.125 0
4.25 0.125 0
4.375 0.125 0
4.5 0.125 0
4.625 0.125 0
4.75 0.125 0
4.875 0.125 0
5 0.125 0
5.125 0.125 0
5.25 0.125 0
5.375 0.125 0
5.5 0.125 0
5.625 0.125 0
5.75 0.125 0
5.875 0.125 0
6 0.125 0
6.125 0.125 0
6.25 0.125 0
6.375 0.125 0
6.5 0.125 0
6.625 0.125 0
6.75 0.125 0
6.875 0.125 0
7 0.125 0
7.125 0.125 0
7.25 0.125 0
7.375 0.125 0
7.5 0.125 0
7.625 0.125 0
7.75 0.125 0
7.875 0.125 0
8 0.125 0
0 0.25 0
0.125 0.25 0
0.25 0.25 0
0.375 0.25 0
0.5 0.25 0
0.625 0.25 0
0.75 0.25 0
0.875 0.25 0
1 0.25 0
1.125 0.25 0
1.25 0.25 0
1.375 0.25 0
1.5 0.25 0
1.625 0.25 0
1.75 0.25 0
1.875 0.25 0
2 0.25 0
2.125 0.25 0
2.25 0.25 0
2.375 0.25 0
2.5 0.25 0
2.625 0.25 0
2.75 0.25 0
2.875 0.25 0
3 0.25 0
3.125 0.25 0
3.25 0.25 0
3.375 0.25 0
3.5 0.25 0
3.625 0.25 0
3.75 0.25 0
3.875 0.25 0
4 0.25 0
4.125 0.25 0
4.25 0.25 0
4.375 0.25 0
4.5 0.25 0
4.625 0.25 0
4.75 0.25 0
4.875 0.25 0
5 0.25 0
5.125 0.25 0
5.25 0.25 0
5.375 0.25 0
5.5 0.25 0
5.625 0.25 0
5.75 0.25 0
5.875 0.25 0
6 0.25 0
6.125 0.25 0
6.25 0.25 0
6.375 0.25 0
6.5 0.25 0
6.625 0.25 0
6.75 0.25 0
6.875 0.25 0
7 0.25 0
7.125 0.25 0
7.25 0.25 0
7.375 0.25 0
7.5 0.25 0
7.625 0.25 0
7.75 0.25 0
7.875 0.25 0
8 0.25 0
0 0.375 0
0.125 0.375 0
0.25 0.375 0
0.375 0.375 0
0.5 0.375 0
0.625 0.375 0
0.75 0.375 0
0.875 0.375 0
1 0.375 0
1.125 0.375 0
1.25 0.375 0
1.375 0.375 0
1.5 0.375 0
1.625 0.375 0
1.75 0.375 0
1.875 0.375 0
2 0.375 0
2.125 0.375 0
2.25 0.375 0
2.375 0.375 0
2.5 0.375 0
2.625 0.375 0
2.75 0.375 0
2.875 0.375 0
3 0.375 0
3.125 0.375 0
3.25 0.375 0
3.375 0.375 0
3.5 0.375 0
3.625 0.375 0
3.75 0.375 0
3.875 0.375 0
4 0.375 0
4.125 0.375 0
4.25 0.375 0
4.375 0.375 0
4.5 0.375 0
4.625 0.375 0
4.75 0.375 0
4.875 0.375 0
5 0.375 0
5.125 0.375 0
5.25 0.375 0
5.375 0.375 0
5.5 0.375 0
5.625 0.375 0
5.75 0.375 0
5.875 0.375 0
6 0.375 0
6.125 0.375 0
6.25 0.375 0
6.375 0.375 0
6.5 0.375 0
6.625 0.375 0
6.75 0.375 0
6.875 0.375 0
7 0.375 0
7.125 0.375 0
7.25 0.375 0
7.375 0.375 0
7.5 0.375 0
7.625 0.375 0
7.75 0.375 0
7.875 0.375 0
8 0.375 0
0 0.5 0
0.125 0.5 0
0.25 0.5 0
0.375 0.5 0
0.5 0.5 0
0.625 0.5 0
0.75 0.5 0
0.875 0.5 0
1 0.5 0
1.125 0.5 0
1.25 0.5 0
1.375 0.5 0
1.5 0.5 0
1.625 0.5 0
1.75 0.5 0
1.875 0.5 0
2 0.5 0
2.125 0.5 0
2.25 0.5 0
2.375 0.5 0
2.5 0.5 0
2.625 0.5 0
2.75 0.5 0
2.875 0.5 0
3 0.5 0
3.125 0.5 0
3.25 0.5 0
3.375 0.5 0
3.5 0.5 0
3.625 0.5 0
3.75 0.5 0
3.875 0.5 0
4 0.5 0
4.125 0.5 0
4.25 0.5 0
4.375 0.5 0
4.5 0.5 0
4.625 0.5 0
4.75 0.5 0
4.875 0.5 0
5 0.5 0
5.125 0.5 0
5.25 0.5 0
5.375 0.5 0
5.5 0.5 0
5.625 0.5 0
5.75 0.5 0
5.875 0.5 0
6 0.5 0
6.125 0.5 0
6.25 0.5 0
6.375 0.5 0
6.5 0.5 0
6.625 0.5 0
6.75 0.5 0
6.875 0.5 0
7 0.5 0
7.125 0.5 0
7.25 0.5 0
7.375 0.5 0
7.5 0.5 0
7.625 0.5 0
7.75 0.5 0
7.875 0.5 0
8 0.5 0
0 0.625 0
0.125 0.625 0
0.25 0.625 0
0.375 0.625 0
0.5 0.625 0
0.625 0.625 0
0.75 0.625 0
0.875 0.625 0
1 0.625 0
1.125 0.625 0
1.25 0.625 0
1.375 0.625 0
1.5 0.625 0
1.625 0.625 0
1.75 0.625 0
1.875 0.625 0
2 0.625 0
2.125 0.625 0
2.25 0.625 0
2.375 0.625 0
2.5 0.625 0
2.625 0.625 0
2.75 0.625 0
2.875 0.625 0
3 0.625 0
3.125 0.625 0
3.25 0.625 0
3.375 0.625 0
3.5 0.625 0
3.625 0.625 0
3.75 0.625 0
3.875 0.625 0
4 0.625 0
4.125 0.625 0
4.25 0.625 0
4.375 0.625 0
4.5 0.625 0
4.625 0.625 0
4.75 0.625 0
4.875 0.625 0
5 0.625 0
5.125 0.625 0
5.25 0.625 0
5.375 0.625 0
5.5 0.625 0
5.625 0.625 0
5.75 0.625 0
5.875 0.625 0
6 0.625 0
6.125 0.625 0
6.25 0.625 0
6.375 0.625 0
6.5 0.625 0
6.625 0.625 0
6.75 0.625 0
6.875 0.625 0
7 0.625 0
7.125 0.625 0
7.25 0.625 0
7.375 0.625 0
7.5 0.625 0
7.625 0.625 0
7.75 0.625 0
7.875 0.625 0
8 0.625 0
0 0.75 0
0.125 0.75 0
0.25 0.75 0
0.375 0.75 0
0.5 0.75 0
0.625 0.75 0
0.75 0.75 0
0.875 0.75 0
1 0.75 0
1.125 0.75 0
1.25 0.75 0
1.375 0.75 0
1.5 0.75 0
1.625 0.75 0
1.75 0.75 0
1.875 0.75 0
2 0.75 0
2.125 0.75 0
2.25 0.75 0
2.375 0.75 0
2.5 0.75 0
2.625 0.75 0
2.75 0.75 0
2.875 0.75 0
3 0.75 0
3.125 0.75 0
3.25 0.75 0
3.375 0.75 0
3.5 0.75 0
3.625 0.75 0
3.75 0.75 0
3.875 0.75 0
4 0.75 0
4.125 0.75 0
4.25 0.75 0
4.375 0.75 0
4.5 0.75 0
4.625 0.75 0
4.75 0.75 0
4.875 0.75 0
5 0.75 0
5.125 0.75 0
5.25 0.75 0
5.375 0.75 0
5.5 0.75 0
5.625 0.75 0
5.75 0.75 0
5.875 0.75 0
6 0.75 0
6.125 0.75 0
6.25 0.75 0
6.375 0.75 0
6.5 0.75 0
6.625 0.75 0
6.75 0.75 0
6.875 0.75 0
7 0.75 0
7.125 0.75 0
7.25 0.75 0
7.375 0.75 0
7.5 0.75 0
7.625 0.75 0
7.75 0.75 0
7.875 0.75 0
8 0.75 0
0 0.875 0
0.125 0.875 0
0.25 0.875 0
0.375 0.875 0
0.5 0.875 0
0.625 0.875 0
0.75 0.875 0
0.875 0.875 0
1 0.875 0
1.125 0.875 0
1.25 0.875 0
1.375 0.875 0
1.5 0.875 0
1.625 0.875 0
1.75 0.875 0
1.875 0.875 0
2 0.875 0
2.125 0.875 0
2.25 0.875 0
2.375 0.875 0
2.5 0.875 0
2.625 0.875 0
2.75 0.875 0
2.875 0.875 0
3 0.875 0
3.125 0.875 0
3.25 0.875 0
3.375 0.875 0
3.5 0.875 0
3.625 0.875 0
3.75 0.875 0
3.875 0.875 0
4 0.875 0
4.125 0.875 0
4.25 0.875 0
4.375 0.875 0
4.5 0.875 0
4.625 0.875 0
4.75 0.875 0
4.875 0.875 0
5 0.875 0
5.125 0.875 0
5.25 0.875 0
5.375 0.875 0
5.5 0.875 0
5.625 0.875 0
5.75 0.875 0
5.875 0.875 0
6 0.875 0
6.125 0.875 0
6.25 0.875 0
6.375 0.875 0
6.5 0.875 0
6.625 0.875 0
6.75 0.875 0
6.875 0.875 0
7 0.875 0
7.125 0.875 0
7.25 0.875 0
7.375 0.875 0
7.5 0.875 0
7.625 0.875 0
7.75 0.875 0
7.875 0.875 0
8 0.875 0
0 1 0
0.125 1 0
0.25 1 0
0.375 1 0
0.5 1 0
0.625 1 0
0.75 1 0
0.875 1 0
1 1 0
1.125 1 0
1.25 1 0
1.375 1 0
1.5 1 0
1.625 1 0
1.75 1 0
1.875 1 0
2 1 0
2.125 1 0
2.25 1 0
2.375 1 0
2.5 1 0
2.625 1 0
2.75 1 0
2.875 1 0
3 1 0
3.125 1 0
3.25 1 0
3.375 1 0
3.5 1 0
3.625 1 0
3.75 1 0
3.875 1 0
4 1 0
4.125 1 0
4.25 1 0
4.375 1 0
4.5 1 0
4.625 1 0
4.75 1 0
4.875 1 0
5 1 0
5.125 1 0
5.25 1 0
5.375 1 0
5.5 1 0
5.625 1 0
5.75 1 0
5.875 1 0
6 1 0
6.125 1 0
6.25 1 0
6.375 1 0
6.5 1 0
6.625 1 0
6.75 1 0
6.875 1 0
7 1 0
7.125 1 0
7.25 1 0
7.375 1 0
7.5 1 0
7.625 1 0
7.75 1 0
7.875 1 0
8 1 0
0 1.125 0
0.125 1.125 0
0.25 1.125 0
0.375 1.125 0
0.5 1.125 0
0.625 1.125 0
0.75 1.125 0
0.875 1.125 0
1 1.125 0
1.125 1.125 0
1.25 1.125 0
1.375 1.125 0
1.5 1.125 0
1.625 1.125 0
1.75 1.125 0
1.875 1.125 0
2 1.125 0
2.125 1.125 0
2.25 1.125 0
2.375 1.125 0
2.5 1.125 0
2.625 1.125 0
2.75 1.125 0
2.875 1.125 0
3 1.125 0
3.125 1.125 0
3.25 1.125 0
3.375 1.125 0
3.5 1.125 0
3.625 1.125 0
3.75 1.125 0
3.875 1.125 0
4 1.125 0
4.125 1.125 0
4.25 1.125 0
4.375 1.125 0
4.5 1.125 0
4.625 1.125 0
4.75 1.125 0
4.875 1.125 0
5 1.125 0
5.125 1.125 0
5.25 1.125 0
5.375 1.125 0
5.5 1.125 0
5.625 1.125 0
5.75 1.125 0
5.875 1.125 0
6 1.125 0
6.125 1.125 0
6.25 1.125 0
6.375 1.125 0
6.5 1.125 0
6.625 1.125 0
6.75 1.125 0
6.875 1.125 0
7 1.125 0
7.125 1.125 0
7.25 1.125 0
7.375 1.125 0
7.5 1.125 0
7.625 1.125 0
7.75 1.125 0
7.875 1.125 0
8 1.125 0
0 1.25 0
0.125 1.25 0
0.25 1.25 0
0.375 1.25 0
0.5 1.25 0
0.625 1.25 0
0.75 1.25 0
0.875 1.25 0
1 1.25 0
1.125 1.25 0
1.25 1.25 0
1.375 1.25 0
1.5 1.25 0
1.625 1.25 0
1.75 1.25 0
1.875 1.25 0
2 1.25 0
2.125 1.25 0
2.25 1.25 0
2.375 1.25 0
2.5 1.25 0
2.625 1.25 0
2.75 1.25 0
2.875 1.25 0
3 1.25 0
3.125 1.25 0
3.25 1.25 0
3.375 1.25 0
3.5 1.25 0
3.625 1.25 0
3.75 1.25 0
3.875 1.25 0
4 1.25 0
4.125 1.25 0
4.25 1.25 0
4.375 1.25 0
4.5 1.25 0
4.625 1.25 0
4.75 1.25 0
4.875 1.25 0
5 1.25 0
5.125 1.25 0
5.25 1.25 0
5.375 1.25 0
5.5 1.25 0
5.625 1.25 0
5.75 1.25 0
5.875 1.25 0
6 1.25 0
6.125 1.25 0
6.25 1.25 0
6.375 1.25 0
6.5 1.25 0
6.625 1.25 0
6.75 1.25 0
6.875 1.25 0
7 1.25 0
7.125 1.25 0
7.25 1.25 0
7.375 1.25 0
7.5 1.25 0
7.625 1.25 0
7.75 1.25 0
7.875 1.25 0
8 1.25 0
0 1.375 0
0.125 1.375 0
0.25 1.375 0
0.375 1.375 0
0.5 1.375 0
0.625 1.375 0
0.75 1.375 0
0.875 1.375 0
1 1.375 0
1.125 1.375 0
1.25 1.375 0
1.375 1.375 0
1.5 1.375 0
1.625 1.375 0
1.75 1.375 0
1.875 1.375 0
2 1.375 0
2.125 1.375 0
2.25 1.375 0
2.375 1.375 0
2.5 1.375 0
2.625 1.375 0
2.75 1.375 0
2.875 1.375 0
3 1.375 0
3.125 1.375 0
3.25 1.375 0
3.375 1.375 0
3.5 1.375 0
3.625 1.375 0
3.75 1.375 0
3.875 1.375 0
4 1.375 0
4.125 1.375 0
4.25 1.375 0
4.375 1.375 0
4.5 1.375 0
4.625 1.375 0
4.75 1.375 0
4.875 1.375 0
5 1.375 0
5.125 1.375 0
5.25 1.375 0
5.375 1.375 0
5.5 1.375 0
5.625 1.375 0
5.75 1.375 0
5.875 1.375 0
6 1.375 0
6.125 1.375 0
6.25 1.375 0
6.375 1.375 0
6.5 1.375 0
6.625 1.375 0
6.75 1.375 0
6.875 1.375 0
7 1.375 0
7.125 1.375 0
7.25 1.375 0
7.375 1.375 0
7.5 1.375 0
7.625 1.375 0
7.75 1.375 0
7.875 1.375 0
8 1.375 0
0 1.5 0
0.125 1.5 0
0.25 1.5 0
0.375 1.5 0
0.5 1.5 0
0.625 1.5 0
0.75 1.5 0
0.875 1.5 0
1 1.5 0
1.125 1.5 0
1.25 1.5 0
1.375 1.5 0
1.5 1.5 0
1.625 1.5 0
1.75 1.5 0
1.875 1.5 0
2 1.5 0
2.125 1.5 0
2.25 1.5 0
2.375 1.5 0
2.5 1.5 0
2.625 1.5 0
2.75 1.5 0
2.875 1.5 0
3 1.5 0
3.125 1.5 0
3.25 1.5 0
3.375 1.5 0
3.5 1.5 0
3.625 1.5 0
3.75 1.5 0
3.875 1.5 0
4 1.5 0
4.125 1.5 0
4.25 1.5 0
4.375 1.5 0
4.5 1.5 0
4.625 1.5 0
4.75 1.5 0
4.875 1.5 0
5 1.5 0
5.125 1.5 0
5.25 1.5 0
5.375 1.5 0
5.5 1.5 0
5.625 1.5 0
5.75 1.5 0
5.875 1.5 0
6 1.5 0
6.125 1.5 0
6.25 1.5 0
6.375 1.5 0
6.5 1.5 0
6.625 1.5 0
6.75 1.5 0
6.875 1.5 0
7 1.5 0
7.125 1.5 0
7.25 1.5 0
7.375 1.5 0
7.5 1.5 0
7.625 1.5 0
7.75 1.5 0
7.875 1.5 0
8 1.5 0
0 1.625 0
0.125 1.625 0
0.25 1.625 0
0.375 1.625 0
0.5 1.625 0
0.625 1.625 0
0.75 1.625 0
0.875 1.625 0
1 1.625 0
1.125 1.625 0
1.25 1.625 0
1.375 1.625 0
1.5 1.625 0
1.625 1.625 0
1.75 1.625 0
1.875 1.625 0
2 1.625 0
2.125 1.625 0
2.25 1.625 0
2.375 1.625 0
2.5 1.625 0
2.625 1.625 0
2.75 1.625 0
2.875 1.625 0
3 1.625 0
3.125 1.625 0
3.25 1.625 0
3.375 1.625 0
3.5 1.625 0
3.625 1.625 0
3.75 1.625 0
3.875 1.625 0
4 1.625 0
4.125 1.625 0
4.25 1.625 0
4.375 1.625 0
4.5 1.625 0
4.625 1.625 0
4.75 1.625 0
4.875 1.625 0
5 1.625 0
5.125 1.625 0
5.25 1.625 0
5.375 1.625 0
5.5 1.625 0
5.625 1.625 0
5.75 1.625 0
5.875 1.625 0
6 1.625 0
6.125 1.625 0
6.25 1.625 0
6.375 1.625 0
6.5 1.625 0
6.625 1.625 0
6.75 1.625 0
6.875 1.625 0
7 1.625 0
7.125 1.625 0
7.25 1.625 0
7.375 1.625 0
7.5 1.625 0
7.625 1.625 0
7.75 1.625 0
7.875 1.625 0
8 1.625 0
0 1.75 0
0.125 1.75 0
0.25 1.75 0
0.375 1.75 0
0.5 1.75 0
0.625 1.75 0
0.75 1.75 0
0.875 1.75 0
1 1.75 0
1.125 1.75 0
1.25 1.75 0
1.375 1.75 0
1.5 1.75 0
1.625 1.75 0
1.75 1.75 0
1.875 1.75 0
2 1.75 0
2.125 1.75 0
2.25 1.75 0
2.375 1.75 0
2.5 1.75 0
2.625 1.75 0
2.75 1.75 0
2.875 1.75 0
3 1.75 0
3.125 1.75 0
3.25 1.75 0
3.375 1.75 0
3.5 1.75 0
3.625 1.75 0
3.75 1.75 0
3.875 1.75 0
4 1.75 0
4.125 1.75 0
4.25 1.75 0
4.375 1.75 0
4.5 1.75 0
4.625 1.75 0
4.75 1.75 0
4.875 1.75 0
5 1.75 0
5.125 1.75 0
5.25 1.75 0
5.375 1.75 0
5.5 1.75 0
5.625 1.75 0
5.75 1.75 0
5.875 1.75 0
6 1.75 0
6.125 1.75 0
6.25 1.75 0
6.375 1.75 0
6.5 1.75 0
6.625 1.75 0
6.75 1.75 0
6.875 1.75 0
7 1.75 0
7.125 1.75 0
7.25 1.75 0
7.375 1.75 0
7.5 1.75 0
7.625 1.75 0
7.75 1.75 0
7.875 1.75 0
8 1.75 0
0 1.875 0
0.125 1.875 0
0.25 1.875 0
0.375 1.875 0
0.5 1.875 0
0.625 1.875 0
0.75 1.875 0
0.875 1.875 0
1 1.875 0
1.125 1.875 0
1.25 1.875 0
1.375 1.875 0
1.5 1.875 0
1.625 1.875 0
1.75 1.875 0
1.875 1.875 0
2 1.875 0
2.125 1.875 0
2.25 1.875 0
2.375 1.875 0
2.5 1.875 0
2.625 1.875 0
2.75 1.875 0
2.875 1.875 0
3 1.875 0
3.125 1.875 0
3.25 1.875 0
3.375 1.875 0
3.5 1.875 0
3.625 1.875 0
3.75 1.875 0
3.875 1.875 0
4 1.875 0
4.125 1.875 0
4.25 1.875 0
4.375 1.875 0
4.5 1.875 0
4.625 1.875 0
4.75 1.875 0
4.875 1.875 0
5 1.875 0
5.125 1.875 0
5.25 1.875 0
5.375 1.875 0
5.5 1.875 0
5.625 1.875 0
5.75 1.875 0
5.875 1.875 0
6 1.875 0
6.125 1.875 0
6.25 1.875 0
6.375 1.875 0
6.5 1.875 0
6.625 1.875 0
6.75 1.875 0
6.875 1.875 0
7 1.875 0
7.125 1.875 0
7.25 1.875 0
7.375 1.875 0
7.5 1.875 0
7.625 1.875 0
7.75 1.875 0
7.875 1.875 0
8 1.875 0
0 2 0
0.125 2 0
0.25 2 0
0.375 2 0
0.5 2 0
0.625 2 0
0.75 2 0
0.875 2 0
1 2 0
1.125 2 0
1.25 2 0
1.375 2 0
1.5 2 0
1.625 2 0
1.75 2 0
1.875 2 0
2 2 0
2.125 2 0
2.25 2 0
2.375 2 0
2.5 2 0
2.625 2 0
2.75 2 0
2.875 2 0
3 2 0
3.125 2 0
3.25 2 0
3.375 2 0
3.5 2 0
3.625 2 0
3.75 2 0
3.875 2 0
4 2 0
4.125 2 0
4.25 2 0
4.375 2 0
4.5 2 0
4.625 2 0
4.75 2 0
4.875 2 0
5 2 0
5.125 2 0
5.25 2 0
5.375 2 0
5.5 2 0
5.625 2 0
5.75 2 0
5.875 2 0
6 2 0
6.125 2 0
6.25 2 0
6.375 2 0
6.5 2 0
6.625 2 0
6.75 2 0
6.875 2 0
7 2 0
7.125 2 0
7.25 2 0
7.375 2 0
7.5 2 0
7.625 2 0
7.75 2 0
7.875 2 0
8 2 0
0 2.125 0
0.125 2.125 0
0.25 2.125 0
0.375 2.125 0
0.5 2.125 0
0.625 2.125 0
0.75 2.125 0
0.875 2.125 0
1 2.125 0
1.125 2.125 0
1.25 2.125 0
1.375 2.125 0
1.5 2.125 0
1.625 2.125 0
1.75 2.125 0
1.875 2.125 0
2 2.125 0
2.125 2.125 0
2.25 2.125 0
2.375 2.125 0
2.5 2.125 0
2.625 2.125 0
2.75 2.125 0
2.875 2.125 0
3 2.125 0
3.125 2.125 0
3.25 2.125 0
3.375 2.125 0
3.5 2.125 0
3.625 2.125 0
3.75 2.125 0
3.875 2.125 0
4 2.125 0
4.125 2.125 0
4.25 2.125 0
4.375 2.125 0
4.5 2.125 0
4.625 2.125 0
4.75 2.125 0
4.875 2.125 0
5 2.125 0
5.125 2.125 0
5.25 2.125 0
5.375 2.125 0
5.5 2.125 0
5.625 2.125 0
5.75 2.125 0
5.875 2.125 0
6 2.125 0
6.125 2.125 0
6.25 2.125 0
6.375 2.125 0
6.5 2.125 0
6.625 2.125 0
6.75 2.125 0
6.875 2.125 0
7 2.125 0
7.125 2.125 0
7.25 2.125 0
7.375 2.125 0
7.5 2.125 0
7.625 2.125 0
7.75 2.125 0
7.875 2.125 0
8 2.125 0
0 2.25 0
0.125 2.25 0
0.25 2.25 0
0.375 2.25 0
0.5 2.25 0
0.625 2.25 0
0.75 2.25 0
0.875 2.25 0
1 2.25 0
1.125 2.25 0
1.25 2.25 0
1.375 2.25 0
1.5 2.25 0
1.625 2.25 0
1.75 2.25 0
1.875 2.25 0
2 2.25 0
2.125 2.25 0
2.25 2.25 0
2.375 2.25 0
2.5 2.25 0
2.625 2.25 0
2.75 2.25 0
2.875 2.25 0
3 2.25 0
3.125 2.25 0
3.25 2.25 0
3.375 2.25 0
3.5 2.25 0
3.625 2.25 0
3.75 2.25 0
3.875 2.25 0
4 2.25 0
4.125 2.25 0
4.25 2.25 0
4.375 2.25 0
4.5 2.25 0
4.625 2.25 0
4.75 2.25 0
4.875 2.25 0
5 2.25 0
5.125 2.25 0
5.25 2.25 0
5.375 2.25 0
5.5 2.25 0
5.625 2.25 0
5.75 2.25 0
5.875 2.25 0
6 2.25 0
6.125 2.25 0
6.25 2.25 0
6.375 2.25 0
6.5 2.25 0
6.625 2.25 0
6.75 2.25 0
6.875 2.25 0
7 2.25 0
7.125 2.25 0
7.25 2.25 0
7.375 2.25 0
7.5 2.25 0
7.625 2.25 0
7.75 2.25 0
7.875 2.25 0
8 2.25 0
0 2.375 0
0.125 2.375 0
0.25 2.375 0
0.375 2.375 0
0.5 2.375 0
0.625 2.375 0
0.75 2.375 0
0.875 2.375 0
1 2.375 0
1.125 2.375 0
1.25 2.375 0
1.375 2.375 0
1.5 2.375 0
1.625 2.375 0
1.75 2.375 0
1.875 2.375 0
2 2.375 0
2.125 2.375 0
2.25 2.375 0
2.375 2.375 0
2.5 2.375 0
2.625 2.375 0
2.75 2.375 0
2.875 2.375 0
3 2.375 0
3.125 2.375 0
3.25 2.375 0
3.375 2.375 0
3.5 2.375 0
3.625 2.375 0
3.75 2.375 0
3.875 2.375 0
4 2.375 0
4.125 2.375 0
4.25 2.375 0
4.375 2.375 0
4.5 2.375 0
4.625 2.375 0
4.75 2.375 0
4.875 2.375 0
5 2.375 0
5.125 2.375 0
5.25 2.375 0
5.375 2.375 0
5.5 2.375 0
5.625 2.375 0
5.75 2.375 0
5.875 2.375 0
6 2.375 0
6.125 2.375 0
6.25 2.375 0
6.375 2.375 0
6.5 2.375 0
6.625 2.375 0
6.75 2.375 0
6.875 2.375 0
7 2.375 0
7.125 2.375 0
7.25 2.375 0
7.375 2.375 0
7.5 2.375 0
7.625 2.375 0
7.75 2.375 0
7.875 2.375 0
8 2.375 0
0 2.5 0
0.125 2.5 0
0.25 2.5 0
0.375 2.5 0
0.5 2.5 0
0.625 2.5 0
0.75 2.5 0
0.875 2.5 0
1 2.5 0
1.125 2.5 0
1.25 2.5 0
1.375 2.5 0
1.5 2.5 0
1.625 2.5 0
1.75 2.5 0
1.875 2.5 0
2 2.5 0
2.125 2.5 0
2.25 2.5 0
2.375 2.5 0
2.5 2.5 0
2.625 2.5 0
2.75 2.5 0
2.875 2.5 0
3 2.5 0
3.125 2.5 0
3.25 2.5 0
3.375 2.5 0
3.5 2.5 0
3.625 2.5 0
3.75 2.5 0
3.875 2.5 0
4 2.5 0
4.125 2.5 0
4.25 2.5 0
4.375 2.5 0
4.5 2.5 0
4.625 2.5 0
4.75 2.5 0
4.875 2.5 0
5 2.5 0
5.125 2.5 0
5.25 2.5 0
5.375 2.5 0
5.5 2.5 0
5.625 2.5 0
5.75 2.5 0
5.875 2.5 0
6 2.5 0
6.125 2.5 0
6.25 2.5 0
6.375 2.5 0
6.5 2.5 0
6.625 2.5 0
6.75 2.5 0
6.875 2.5 0
7 2.5 0
7.125 2.5 0
7.25 2.5 0
7.375 2.5 0
7.5 2.5 0
7.625 2.5 0
7.75 2.5 0
7.875 2.5 0
8 2.5 0
0 2.625 0
0.125 2.625 0
0.25 2.625 0
0.375 2.625 0
0.5 2.625 0
0.625 2.625 0
0.75 2.625 0
0.875 2.625 0
1 2.625 0
1.125 2.625 0
1.25 2.625 0
1.375 2.625 0
1.5 2.625 0
1.625 2.625 0
1.75 2.625 0
1.875 2.625 0
2 2.625 0
2.125 2.625 0
2.25 2.625 0
2.375 2.625 0
2.5 2.625 0
2.625 2.625 0
2.75 2.625 0
2.875 2.625 0
3 2.625 0
3.125 2.625 0
3.25 2.625 0
3.375 2.625 0
3.5 2.625 0
3.625 2.625 0
3.75 2.625 0
3.875 2.625 0
4 2.625 0
4.125 2.625 0
4.25 2.625 0
4.375 2.625 0
4.5 2.625 0
4.625 2.625 0
4.75 2.625 0
4.875 2.625 0
5 2.625 0
5.125 2.625 0
5.25 2.625 0
5.375 2.625 0
5.5 2.625 0
5.625 2.625 0
5.75 2.625 0
5.875 2.625 0
6 2.625 0
6.125 2.625 0
6.25 2.625 0
6.375 2.625 0
6.5 2.625 0
6.625 2.625 0
6.75 2.625 0
6.875 2.625 0
7 2.625 0
7.125 2.625 0
7.25 2.625 0
7.375 2.625 0
7.5 2.625 0
7.625 2.625 0
7.75 2.625 0
7.875 2.625 0
8 2.625 0
0 2.75 0
0.125 2.75 0
0.25 2.75 0
0.375 2.75 0
0.5 2.75 0
0.625 2.75 0
0.75 2.75 0
0.875 2.75 0
1 2.75 0
1.125 2.75 0
1.25 2.75 0
1.375 2.75 0
1.5 2.75 0
1.625 2.75 0
1.75 2.75 0
1.875 2.75 0
2 2.75 0
2.125 2.75 0
2.25 2.75 0
2.375 2.75 0
2.5 2.75 0
2.625 2.75 0
2.75 2.75 0
2.875 2.75 0
3 2.75 0
3.125 2.75 0
3.25 2.75 0
3.375 2.75 0
3.5 2.75 0
3.625 2.75 0
3.75 2.75 0
3.875 2.75 0
4 2.75 0
4.125 2.75 0
4.25 2.75 0
4.375 2.75 0
4.5 2.75 0
4.625 2.75 0
4.75 2.75 0
4.875 2.75 0
5 2.75 0
5.125 2.75 0
5.25 2.75 0
5.375 2.75 0
5.5 2.75 0
5.625 2.75 0
5.75 2.75 0
5.875 2.75 0
6 2.75 0
6.125 2.75 0
6.25 2.75 0
6.375 2.75 0
6.5 2.75 0
6.625 2.75 0
6.75 2.75 0
6.875 2.75 0
7 2.75 0
7.125 2.75 0
7.25 2.75 0
7.375 2.75 0
7.5 2.75 0
7.625 2.75 0
7.75 2.75 0
7.875 2.75 0
8 2.75 0
0 2.875 0
0.125 2.875 0
0.25 2.875 0
0.375 2.875 0
0.5 2.875 0
0.625 2.875 0
0.75 2.875 0
0.875 2.875 0
1 2.875 0
1.125 2.875 0
1.25 2.875 0
1.375 2.875 0
1.5 2.875 0
1.625 2.875 0
1.75 2.875 0
1.875 2.875 0
2 2.875 0
2.125 2.875 0
2.25 2.875 0
2.375 2.875 0
2.5 2.875 0
2.625 2.875 0
2.75 2.875 0
2.875 2.875 0
3 2.875 0
3.125 2.875 0
3.25 2.875 0
3.375 2.875 0
3.5 2.875 0
3.625 2.875 0
3.75 2.875 0
3.875 2.875 0
4 2.875 0
4.125 2.875 0
4.25 2.875 0
4.375 2.875 0
4.5 2.875 0
4.625 2.875 0
4.75 2.875 0
4.875 2.875 0
5 2.875 0
5.125 2.875 0
5.25 2.875 0
5.375 2.875 0
5.5 2.875 0
5.625 2.875 0
5.75 2.875 0
5.875 2.875 0
6 2.875 0
6.125 2.875 0
6.25 2.875 0
6.375 2.875 0
6.5 2.875 0
6.625 2.875 0
6.75 2.875 0
6.875 2.875 0
7 2.875 0
7.125 2.875 0
7.25 2.875 0
7.375 2.875 0
7.5 2.875 0
7.625 2.875 0
7.75 2.875 0
7.875 2.875 0
8 2.875 0
0 3 0
0.125 3 0
0.25 3 0
0.375 3 0
0.5 3 0
0.625 3 0
0.75 3 0
0.875 3 0
1 3 0
1.125 3 0
1.25 3 0
1.375 3 0
1.5 3 0
1.625 3 0
1.75 3 0
1.875 3 0
2 3 0
2.125 3 0
2.25 3 0
2.375 3 0
2.5 3 0
2.625 3 0
2.75 3 0
2.875 3 0
3 3 0
3.125 3 0
3.25 3 0
3.375 3 0
3.5 3 0
3.625 3 0
3.75 3 0
3.875 3 0
4 3 0
4.125 3 0
4.25 3 0
4.375 3 0
4.5 3 0
4.625 3 0
4.75 3 0
4.875 3 0
5 3 0
5.125 3 0
5.25 3 0
5.375 3 0
5.5 3 0
5.625 3 0
5.75 3 0
5.875 3 0
6 3 0
6.125 3 0
6.25 3 0
6.375 3 0
6.5 3 0
6.625 3 0
6.75 3 0
6.875 3 0
7 3 0
7.125 3 0
7.25 3 0
7.375 3 0
7.5 3 0
7.625 3 0
7.75 3 0
7.875 3 0
8 3 0
0 3.125 0
0.125 3.125 0
0.25 3.125 0
0.375 3.125 0
0.5 3.125 0
0.625 3.125 0
0.75 3.125 0
0.875 3.125 0
1 3.125 0
1.125 3.125 0
1.25 3.125 0
1.375 3.125 0
1.5 3.125 0
1.625 3.125 0
1.75 3.125 0
1.875 3.125 0
2 3.125 0
2.125 3.125 0
2.25 3.125 0
2.375 3.125 0
2.5 3.125 0
2.625 3.125 0
2.75 3.125 0
2.875 3.125 0
3 3.125 0
3.125 3.125 0
3.25 3.125 0
3.375 3.125 0
3.5 3.125 0
3.625 3.125 0
3.75 3.125 0
3.875 3.125 0
4 3.125 0
4.125 3.125 0
4.25 3.125 0
4.375 3.125 0
4.5 3.125 0
4.625 3.125 0
4.75 3.125 0
4.875 3.125 0
5 3.125 0
5.125 3.125 0
5.25 3.125 0
5.375 3.125 0
5.5 3.125 0
5.625 3.125 0
5.75 3.125 0
5.875 3.125 0
6 3.125 0
6.125 3.125 0
6.25 3.125 0
6.375 3.125 0
6.5 3.125 0
6.625 3.125 0
6.75 3.125 0
6.875 3.125 0
7 3.125 0
7.125 3.125 0
7.25 3.125 0
7.375 3.125 0
7.5 3.125 0
7.625 3.125 0
7.75 3.125 0
7.875 3.125 0
8 3.125 0
0 3.25 0
0.125 3.25 0
0.25 3.25 0
0.375 3.25 0
0.5 3.25 0
0.625 3.25 0
0.75 3.25 0
0.875 3.25 0
1 3.25 0
1.125 3.25 0
1.25 3.25 0
1.375 3.25 0
1.5 3.25 0
1.625 3.25 0
1.75 3.25 0
1.875 3.25 0
2 3.25 0
2.125 3.25 0
2.25 3.25 0
2.375 3.25 0
2.5 3.25 0
2.625 3.25 0
2.75 3.25 0
2.875 3.25 0
3 3.25 0
3.125 3.25 0
3.25 3.25 0
3.375 3.25 0
3.5 3.25 0
3.625 3.25 0
3.75 3.25 0
3.875 3.25 0
4 3.25 0
4.125 3.25 0
4.25 3.25 0
4.375 3.25 0
4.5 3.25 0
4.625 3.25 0
4.75 3.25 0
4.875 3.25 0
5 3.25 0
5.125 3.25 0
5.25 3.25 0
5.375 3.25 0
5.5 3.25 0
5.625 3.25 0
5.75 3.25 0
5.875 3.25 0
6 3.25 0
6.125 3.25 0
6.25 3.25 0
6.375 3.25 0
6.5 3.25 0
6.625 3.25 0
6.75 3.25 0
6.875 3.25 0
7 3.25 0
7.125 3.25 0
7.25 3.25 0
7.375 3.25 0
7.5 3.25 0
7.625 3.25 0
7.75 3.25 0
7.875 3.25 0
8 3.25 0
0 3.375 0
0.125 3.375 0
0.25 3.375 0
0.375 3.375 0
0.5 3.375 0
0.625 3.375 0
0.75 3.375 0
0.875 3.375 0
1 3.375 0
1.125 3.375 0
1.25 3.375 0
1.375 3.375 0
1.5 3.375 0
1.625 3.375 0
1.75 3.375 0
1.875 3.375 0
2 3.375 0
2.125 3.375 0
2.25 3.375 0
2.375 3.375 0
2.5 3.375 0
2.625 3.375 0
2.75 3.375 0
2.875 3.375 0
3 3.375 0
3.125 3.375 0
3.25 3.375 0
3.375 3.375 0
3.5 3.375 0
3.625 3.375 0
3.75 3.375 0
3.875 3.375 0
4 3.375 0
4.125 3.375 0
4.25 3.375 0
4.375 3.375 0
4.5 3.375 0
4.625 3.375 0
4.75 3.375 0
4.875 3.375 0
5 3.375 0
5.125 3.375 0
5.25 3.375 0
5.375 3.375 0
5.5 3.375 0
5.625 3.375 0
5.75 3.375 0
5.875 3.375 0
6 3.375 0
6.125 3.375 0
6.25 3.375 0
6.375 3.375 0
6.5 3.375 0
6.625 3.375 0
6.75 3.375 0
6.875 3.375 0
7 3.375 0
7.125 3.375 0
7.25 3.375 0
7.375 3.375 0
7.5 3.375 0
7.625 3.375 0
7.75 3.375 0
7.875 3.375 0
8 3.375 0
0 3.5 0
0.125 3.5 0
0.25 3.5 0
0.375 3.5 0
0.5 3.5 0
0.625 3.5 0
0.75 3.5 0
0.875 3.5 0
1 3.5 0
1.125 3.5 0
1.25 3.5 0
1.375 3.5 0
1.5 3.5 0
1.625 3.5 0
1.75 3.5 0
1.875 3.5 0
2 3.5 0
2.125 3.5 0
2.25 3.5 0
2.375 3.5 0
2.5 3.5 0
2.625 3.5 0
2.75 3.5 0
2.875 3.5 0
3 3.5 0
3.125 3.5 0
3.25 3.5 0
3.375 3.5 0
3.5 3.5 0
3.625 3.5 0
3.75 3.5 0
3.875 3.5 0
4 3.5 0
4.125 3.5 0
4.25 3.5 0
4.375 3.5 0
4.5 3.5 0
4.625 3.5 0
4.75 3.5 0
4.875 3.5 0
5 3.5 0
5.125 3.5 0
5.25 3.5 0
5.375 3.5 0
5.5 3.5 0
5.625 3.5 0
5.75 3.5 0
5.875 3.5 0
6 3.5 0
6.125 3.5 0
6.25 3.5 0
6.375 3.5 0
6.5 3.5 0
6.625 3.5 0
6.75 3.5 0
6.875 3.5 0
7 3.5 0
7.125 3.5 0
7.25 3.5 0
7.375 3.5 0
7.5 3.5 0
7.625 3.5 0
7.75 3.5 0
7.875 3.5 0
8 3.5 0
0 3.625 0
0.125 3.625 0
0.25 3.625 0
0.375 3.625 0
0.5 3.625 0
0.625 3.625 0
0.75 3.625 0
0.875 3.625 0
1 3.625 0
1.125 3.625 0
1.25 3.625 0
1.375 3.625 0
1.5 3.625 0
1.625 3.625 0
1.75 3.625 0
1.875 3.625 0
2 3.625 0
2.125 3.625 0
2.25 3.625 0
2.375 3.625 0
2.5 3.625 0
2.625 3.625 0
2.75 3.625 0
2.875 3.625 0
3 3.625 0
3.125 3.625 0
3.25 3.625 0
3.375 3.625 0
3.5 3.625 0
3.625 3.625 0
3.75 3.625 0
3.875 3.625 0
4 3.625 0
4.125 3.625 0
4.25 3.625 0
4.375 3.625 0
4.5 3.625 0
4.625 3.625 0
4.75 3.625 0
4.875 3.625 0
5 3.625 0
5.125 3.625 0
5.25 3.625 0
5.375 3.625 0
5.5 3.625 0
5.625 3.625 0
5.75 3.625 0
5.875 3.625 0
6 3.625 0
6.125 3.625 0
6.25 3.625 0
6.375 3.625 0
6.5 3.625 0
6.625 3.625 0
6.75 3.625 0
6.875 3.625 0
7 3.625 0
7.125 3.625 0
7.25 3.625 0
7.375 3.625 0
7.5 3.625 0
7.625 3.625 0
7.75 3.625 0
7.875 3.625 0
8 3.625 0
0 3.75 0
0.125 3.75 0
0.25 3.75 0
0.375 3.75 0
0.5 3.75 0
0.625 3.75 0
0.75 3.75 0
0.875 3.75 0
1 3.75 0
1.125 3.75 0
1.25 3.75 0
1.375 3.75 0
1.5 3.75 0
1.625 3.75 0
1.75 3.75 0
1.875 3.75 0
2 3.75 0
2.125 3.75 0
2.25 3.75 0
2.375 3.75 0
2.5 3.75 0
2.625 3.75 0
2.75 3.75 0
2.875 3.75 0
3 3.75 0
3.125 3.75 0
3.25 3.75 0
3.375 3.75 0
3.5 3.75 0
3.625 3.75 0
3.75 3.75 0
3.875 3.75 0
4 3.75 0
4.125 3.75 0
4.25 3.75 0
4.375 3.75 0
4.5 3.75 0
4.625 3.75 0
4.75 3.75 0
4.875 3.75 0
5 3.75 0
5.125 3.75 0
5.25 3.75 0
5.375 3.75 0
5.5 3.75 0
5.625 3.75 0
5.75 3.75 0
5.875 3.75 0
6 3.75 0
6.125 3.75 0
6.25 3.75 0
6.375 3.75 0
6.5 3.75 0
6.625 3.75 0
6.75 3.75 0
6.875 3.75 0
7 3.75 0
7.125 3.75 0
7.25 3.75 0
7.375 3.75 0
7.5 3.75 0
7.625 3.75 0
7.75 3.75 0
7.875 3.75 0
8 3.75 0
0 3.875 0
0.125 3.875 0
0.25 3.875 0
0.375 3.875 0
0.5 3.875 0
0.625 3.875 0
0.75 3.875 0
0.875 3.875 0
1 3.875 0
1.125 3.875 0
1.25 3.875 0
1.375 3.875 0
1.5 3.875 0
1.625 3.875 0
1.75 3.875 0
1.875 3.875 0
2 3.875 0
2.125 3.875 0
2.25 3.875 0
2.375 3.875 0
2.5 3.875 0
2.625 3.875 0
2.75 3.875 0
2.875 3.875 0
3 3.875 0
3.125 3.875 0
3.25 3.875 0
3.375 3.875 0
3.5 3.875 0
3.625 3.875 0
3.75 3.875 0
3.875 3.875 0
4 3.875 0
4.125 3.875 0
4.25 3.875 0
4.375 3.875 0
4.5 3.875 0
4.625 3.875 0
4.75 3.875 0
4.875 3.875 0
5 3.875 0
5.125 3.875 0
5.25 3.875 0
5.375 3.875 0
5.5 3.875 0
5.625 3.875 0
5.75 3.875 0
5.875 3.875 0
6 3.875 0
6.125 3.875 0
6.25 3.875 0
6.375 3.875 0
6.5 3.875 0
6.625 3.875 0
6.75 3.875 0
6.875 3.875 0
7 3.875 0
7.125 3.875 0
7.25 3.875 0
7.375 3.875 0
7.5 3.875 0
7.625 3.875 0
7.75 3.875 0
7.875 3.875 0
8 3.875 0
0 4 0
0.125 4 0
0.25 4 0
0.375 4 0
0.5 4 0
0.625 4 0
0.75 4 0
0.875 4 0
1 4 0
1.125 4 0
1.25 4 0
1.375 4 0
1.5 4 0
1.625 4 0
1.75 4 0
1.875 4 0
2 4 0
2.125 4 0
2.25 4 0
2.375 4 0
2.5 4 0
2.625 4 0
2.75 4 0
2.875 4 0
3 4 0
3.125 4 0
3.25 4 0
3.375 4 0
3.5 4 0
3.625 4 0
3.75 4 0
3.875 4 0
4 4 0
4.125 4 0
4.25 4 0
4.375 4 0
4.5 4 0
4.625 4 0
4.75 4 0
4.875 4 0
5 4 0
5.125 4 0
5.25 4 0
5.375 4 0
5.5 4 0
5.625 4 0
5.75 4 0
5.875 4 0
6 4 0
6.125 4 0
6.25 4 0
6.375 4 0
6.5 4 0
6.625 4 0
6.75 4 0
6.875 4 0
7 4 0
7.125 4 0
7.25 4 0
7.375 4 0
7.5 4 0
7.625 4 0
7.75 4 0
7.875 4 0
8 4 0
0 4.125 0
0.125 4.125 0
0.25 4.125 0
0.375 4.125 0
0.5 4.125 0
0.625 4.125 0
0.75 4.125 0
0.875 4.125 0
1 4.125 0
1.125 4.125 0
1.25 4.125 0
1.375 4.125 0
1.5 4.125 0
1.625 4.125 0
1.75 4.125 0
1.875 4.125 0
2 4.125 0
2.125 4.125 0
2.25 4.125 0
2.375 4.125 0
2.5 4.125 0
2.625 4.125 0
2.75 4.125 0
2.875 4.125 0
3 4.125 0
3.125 4.125 0
3.25 4.125 0
3.375 4.125 0
3.5 4.125 0
3.625 4.125 0
3.75 4.125 0
3.875 4.125 0
4 4.125 0
4.125 4.125 0
4.25 4.125 0
4.375 4.125 0
4.5 4.125 0
4.625 4.125 0
4.75 4.125 0
4.875 4.125 0
5 4.125 0
5.125 4.125 0
5.25 4.125 0
5.375 4.125 0
5.5 4.125 0
5.625 4.125 0
5.75 4.125 0
5.875 4.125 0
6 4.125 0
6.125 4.125 0
6.25 4.125 0
6.375 4.125 0
6.5 4.125 0
6.625 4.125 0
6.75 4.125 0
6.875 4.125 0
7 4.125 0
7.125 4.125 0
7.25 4.125 0
7.375 4.125 0
7.5 4.125 0
7.625 4.125 0
7.75 4.125 0
7.875 4.125 0
8 4.125 0
0 4.25 0
0.125 4.25 0
0.25 4.25 0
0.375 4.25 0
0.5 4.25 0
0.625 4.25 0
0.75 4.25 0
0.875 4.25 0
1 4.25 0
1.125 4.25 0
1.25 4.25 0
1.375 4.25 0
1.5 4.25 0
1.625 4.25 0
1.75 4.25 0
1.875 4.25 0
2 4.25 0
2.125 4.25 0
2.25 4.25 0
2.375 4.25 0
2.5 4.25 0
2.625 4.25 0
2.75 4.25 0
2.875 4.25 0
3 4.25 0
3.125 4.25 0
3.25 4.25 0
3.375 4.25 0
3.5 4.25 0
3.625 4.25 0
3.75 4.25 0
3.875 4.25 0
4 4.25 0
4.125 4.25 0
4.25 4.25 0
4.375 4.25 0
4.5 4.25 0
4.625 4.25 0
4.75 4.25 0
4.875 4.25 0
5 4.25 0
5.125 4.25 0
5.25 4.25 0
5.375 4.25 0
5.5 4.25 0
5.625 4.25 0
5.75 4.25 0
5.875 4.25 0
6 4.25 0
6.125 4.25 0
6.25 4.25 0
6.375 4.25 0
6.5 4.25 0
6.625 4.25 0
6.75 4.25 0
6.875 4.25 0
7 4.25 0
7.125 4.25 0
7.25 4.25 0
7.375 4.25 0
7.5 4.25 0
7.625 4.25 0
7.75 4.25 0
7.875 4.25 0
8 4.25 0
0 4.375 0
0.125 4.375 0
0.25 4.375 0
0.375 4.375 0
0.5 4.375 0
0.625 4.375 0
0.75 4.375 0
0.875 4.375 0
1 4.375 0
1.125 4.375 0
1.25 4.375 0
1.375 4.375 0
1.5 4.375 0
1.625 4.375 0
1.75 4.375 0
1.875 4.375 0
2 4.375 0
2.125 4.375 0
2.25 4.375 0
2.375 4.375 0
2.5 4.375 0
2.625 4.375 0
2.75 4.375 0
2.875 4.375 0
3 4.375 0
3.125 4.375 0
3.25 4.375 0
3.375 4.375 0
3.5 4.375 0
3.625 4.375 0
3.75 4.375 0
3.875 4.375 0
4 4.375 0
4.125 4.375 0
4.25 4.375 0
4.375 4.375 0
4.5 4.375 0
4.625 4.375 0
4.75 4.375 0
4.875 4.375 0
5 4.375 0
5.125 4.375 0
5.25 4.375 0
5.375 4.375 0
5.5 4.375 0
5.625 4.375 0
5.75 4.375 0
5.875 4.375 0
6 4.375 0
6.125 4.375 0
6.25 4.375 0
6.375 4.375 0
6.5 4.375 0
6.625 4.375 0
6.75 4.375 0
6.875 4.375 0
7 4.375 0
7.125 4.375 0
7.25 4.375 0
7.375 4.375 0
7.5 4.375 0
7.625 4.375 0
7.75 4.375 0
7.875 4.375 0
8 4.375 0
0 4.5 0
0.125 4.5 0
0.25 4.5 0
0.375 4.5 0
0.5 4.5 0
0.625 4.5 0
0.75 4.5 0
0.875 4.5 0
1 4.5 0
1.125 4.5 0
1.25 4.5 0
1.375 4.5 0
1.5 4.5 0
1.625 4.5 0
1.75 4.5 0
1.875 4.5 0
2 4.5 0
2.125 4.5 0
2.25 4.5 0
2.375 4.5 0
2.5 4.5 0
2.625 4.5 0
2.75 4.5 0
2.875 4.5 0
3 4.5 0
3.125 4.5 0
3.25 4.5 0
3.375 4.5 0
3.5 4.5 0
3.625 4.5 0
3.75 4.5 0
3.875 4.5 0
4 4.5 0
4.125 4.5 0
4.25 4.5 0
4.375 4.5 0
4.5 4.5 0
4.625 4.5 0
4.75 4.5 0
4.875 4.5 0
5 4.5 0
5.125 4.5 0
5.25 4.5 0
5.375 4.5 0
5.5 4.5 0
5.625 4.5 0
5.75 4.5 0
5.875 4.5 0
6 4.5 0
6.125 4.5 0
6.25 4.5 0
6.375 4.5 0
6.5 4.5 0
6.625 4.5 0
6.75 4.5 0
6.875 4.5 0
7 4.5 0
7.125 4.5 0
7.25 4.5 0
7.375 4.5 0
7.5 4.5 0
7.625 4.5 0
7.75 4.5 0
7.875 4.5 0
8 4.5 0
0 4.625 0
0.125 4.625 0
0.25 4.625 0
0.375 4.625 0
0.5 4.625 0
0.625 4.625 0
0.75 4.625 0
0.875 4.625 0
1 4.625 0
1.125 4.625 0
1.25 4.625 0
1.375 4.625 0
1.5 4.625 0
1.625 4.625 0
1.75 4.625 0
1.875 4.625 0
2 4.625 0
2.125 4.625 0
2.25 4.625 0
2.375 4.625 0
2.5 4.625 0
2.625 4.625 0
2.75 4.625 0
2.875 4.625 0
3 4.625 0
3.125 4.625 0
3.25 4.625 0
3.375 4.625 0
3.5 4.625 0
3.625 4.625 0
3.75 4.625 0
3.875 4.625 0
4 4.625 0
4.125 4.625 0
4.25 4.625 0
4.375 4.625 0
4.5 4.625 0
4.625 4.625 0
4.75 4.625 0
4.875 4.625 0
5 4.625 0
5.125 4.625 0
5.25 4.625 0
5.375 4.625 0
5.5 4.625 0
5.625 4.625 0
5.75 4.625 0
5.875 4.625 0
6 4.625 0
6.125 4.625 0
6.25 4.625 0
6.375 4.625 0
6.5 4.625 0
6.625 4.625 0
6.75 4.625 0
6.875 4.625 0
7 4.625 0
7.125 4.625 0
7.25 4.625 0
7.375 4.625 0
7.5 4.625 0
7.625 4.625 0
7.75 4.625 0
7.875 4.625 0
8 4.625 0
0 4.75 0
0.125 4.75 0
0.25 4.75 0
0.375 4.75 0
0.5 4.75 0
0.625 4.75 0
0.75 4.75 0
0.875 4.75 0
1 4.75 0
1.125 4.75 0
1.25 4.75 0
1.375 4.75 0
1.5 4.75 0
1.625 4.75 0
1.75 4.75 0
1.875 4.75 0
2 4.75 0
2.125 4.75 0
2.25 4.75 0
2.375 4.75 0
2.5 4.75 0
2.625 4.75 0
2.75 4.75 0
2.875 4.75 0
3 4.75 0
3.125 4.75 0
3.25 4.75 0
3.375 4.75 0
3.5 4.75 0
3.625 4.75 0
3.75 4.75 0
3.875 4.75 0
4 4.75 0
4.125 4.75 0
4.25 4.75 0
4.375 4.75 0
4.5 4.75 0
4.625 4.75 0
4.75 4.75 0
4.875 4.75 0
5 4.75 0
5.125 4.75 0
5.25 4.75 0
5.375 4.75 0
5.5 4.75 0
5.625 4.75 0
5.75 4.75 0
5.875 4.75 0
6 4.75 0
6.125 4.75 0
6.25 4.75 0
6.375 4.75 0
6.5 4.75 0
6.625 4.75 0
6.75 4.75 0
6.875 4.75 0
7 4.75 0
7.125 4.75 0
7.25 4.75 0
7.375 4.75 0
7.5 4.75 0
7.625 4.75 0
7.75 4.75 0
7.875 4.75 0
8 4.75 0
0 4.875 0
0.125 4.875 0
0.25 4.875 0
0.375 4.875 0
0.5 4.875 0
0.625 4.875 0
0.75 4.875 0
0.875 4.875 0
1 4.875 0
1.125 4.875 0
1.25 4.875 0
1.375 4.875 0
1.5 4.875 0
1.625 4.875 0
1.75 4.875 0
1.875 4.875 0
2 4.875 0
2.125 4.875 0
2.25 4.875 0
2.375 4.875 0
2.5 4.875 0
2.625 4.875 0
2.75 4.875 0
2.875 4.875 0
3 4.875 0
3.125 4.875 0
3.25 4.875 0
3.375 4.875 0
3.5 4.875 0
3.625 4.875 0
3.75 4.875 0
3.875 4.875 0
4 4.875 0
4.125 4.875 0
4.25 4.875 0
4.375 4.875 0
4.5 4.875 0
4.625 4.875 0
4.75 4.875 0
4.875 4.875 0
5 4.875 0
5.125 4.875 0
5.25 4.875 0
5.375 4.875 0
5.5 4.875 0
5.625 4.875 0
5.75 4.875 0
5.875 4.875 0
6 4.875 0
6.125 4.875 0
6.25 4.875 0
6.375 4.875 0
6.5 4.875 0
6.625 4.875 0
6.75 4.875 0
6.875 4.875 0
7 4.875 0
7.125 4.875 0
7.25 4.875 0
7.375 4.875 0
7.5 4.875 0
7.625 4.875 0
7.75 4.875 0
7.875 4.875 0
8 4.875 0
0 5 0
0.125 5 0
0.25 5 0
0.375 5 0
0.5 5 0
0.625 5 0
0.75 5 0
0.875 5 0
1 5 0
1.125 5 0
1.25 5 0
1.375 5 0
1.5 5 0
1.625 5 0
1.75 5 0
1.875 5 0
2 5 0
2.125 5 0
2.25 5 0
2.375 5 0
2.5 5 0
2.625 5 0
2.75 5 0
2.875 5 0
3 5 0
3.125 5 0
3.25 5 0
3.375 5 0
3.5 5 0
3.625 5 0
3.75 5 0
3.875 5 0
4 5 0
4.125 5 0
4.25 5 0
4.375 5 0
4.5 5 0
4.625 5 0
4.75 5 0
4.875 5 0
5 5 0
5.125 5 0
5.25 5 0
5.375 5 0
5.5 5 0
5.625 5 0
5.75 5 0
5.875 5 0
6 5 0
6.125 5 0
6.25 5 0
6.375 5 0
6.5 5 0
6.625 5 0
6.75 5 0
6.875 5 0
7 5 0
7.125 5 0
7.25 5 0
7.375 5 0
7.5 5 0
7.625 5 0
7.75 5 0
7.875 5 0
8 5 0
0 5.125 0
0.125 5.125 0
0.25 5.125 0
0.375 5.125 0
0.5 5.125 0
0.625 5.125 0
0.75 5.125 0
0.875 5.125 0
1 5.125 0
1.125 5.125 0
1.25 5.125 0
1.375 5.125 0
1.5 5.125 0
1.625 5.125 0
1.75 5.125 0
1.875 5.125 0
2 5.125 0
2.125 5.125 0
2.25 5.125 0
2.375 5.125 0
2.5 5.125 0
2.625 5.125 0
2.75 5.125 0
2.875 5.125 0
3 5.125 0
3.125 5.125 0
3.25 5.125 0
3.375 5.125 0
3.5 5.125 0
3.625 5.125 0
3.75 5.125 0
3.875 5.125 0
4 5.125 0
4.125 5.125 0
4.25 5.125 0
4.375 5.125 0
4.5 5.125 0
4.625 5.125 0
4.75 5.125 0
4.875 5.125 0
5 5.125 0
5.125 5.125 0
5.25 5.125 0
5.375 5.125 0
5.5 5.125 0
5.625 5.125 0
5.75 5.125 0
5.875 5.125 0
6 5.125 0
6.125 5.125 0
6.25 5.125 0
6.375 5.125 0
6.5 5.125 0
6.625 5.125 0
6.75 5.125 0
6.875 5.125 0
7 5.125 0
7.125 5.125 0
7.25 5.125 0
7.375 5.125 0
7.5 5.125 0
7.625 5.125 0
7.75 5.125 0
7.875 5.125 0
8 5.125 0
0 5.25 0
0.125 5.25 0
0.25 5.25 0
0.375 5.25 0
0.5 5.25 0
0.625 5.25 0
0.75 5.25 0
0.875 5.25 0
1 5.25 0
1.125 5.25 0
1.25 5.25 0
1.375 5.25 0
1.5 5.25 0
1.625 5.25 0
1.75 5.25 0
1.875 5.25 0
2 5.25 0
2.125 5.25 0
2.25 5.25 0
2.375 5.25 0
2.5 5.25 0
2.625 5.25 0
2.75 5.25 0
2.875 5.25 0
3 5.25 0
3.125 5.25 0
3.25 5.25 0
3.375 5.25 0
3.5 5.25 0
3.625 5.25 0
3.75 5.25 0
3.875 5.25 0
4 5.25 0
4.125 5.25 0
4.25 5.25 0
4.375 5.25 0
4.5 5.25 0
4.625 5.25 0
4.75 5.25 0
4.875 5.25 0
5 5.25 0
5.125 5.25 0
5.25 5.25 0
5.375 5.25 0
5.5 5.25 0
5.625 5.25 0
5.75 5.25 0
5.875 5.25 0
6 5.25 0
6.125 5.25 0
6.25 5.25 0
6.375 5.25 0
6.5 5.25 0
6.625 5.25 0
6.75 5.25 0
6.875 5.25 0
7 5.25 0
7.125 5.25 0
7.25 5.25 0
7.375 5.25 0
7.5 5.25 0
7.625 5.25 0
7.75 5.25 0
7.875 5.25 0
8 5.25 0
0 5.375 0
0.125 5.375 0
0.25 5.375 0
0.375 5.375 0
0.5 5.375 0
0.625 5.375 0
0.75 5.375 0
0.875 5.375 0
1 5.375 0
1.125 5.375 0
1.25 5.375 0
1.375 5.375 0
1.5 5.375 0
1.625 5.375 0
1.75 5.375 0
1.875 5.375 0
2 5.375 0
2.125 5.375 0
2.25 5.375 0
2.375 5.375 0
2.5 5.375 0
2.625 5.375 0
2.75 5.375 0
2.875 5.375 0
3 5.375 0
3.125 5.375 0
3.25 5.375 0
3.375 5.375 0
3.5 5.375 0
3.625 5.375 0
3.75 5.375 0
3.875 5.375 0
4 5.375 0
4.125 5.375 0
4.25 5.375 0
4.375 5.375 0
4.5 5.375 0
4.625 5.375 0
4.75 5.375 0
4.875 5.375 0
5 5.375 0
5.125 5.375 0
5.25 5.375 0
5.375 5.375 0
5.5 5.375 0
5.625 5.375 0
5.75 5.375 0
5.875 5.375 0
6 5.375 0
6.125 5.375 0
6.25 5.375 0
6.375 5.375 0
6.5 5.375 0
6.625 5.375 0
6.75 5.375 0
6.875 5.375 0
7 5.375 0
7.125 5.375 0
7.25 5.375 0
7.375 5.375 0
7.5 5.375 0
7.625 5.375 0
7.75 5.375 0
7.875 5.375 0
8 5.375 0
0 5.5 0
0.125 5.5 0
0.25 5.5 0
0.375 5.5 0
0.5 5.5 0
0.625 5.5 0
0.75 5.5 0
0.875 5.5 0
1 5.5 0
1.125 5.5 0
1.25 5.5 0
1.375 5.5 0
1.5 5.5 0
1.625 5.5 0
1.75 5.5 0
1.875 5.5 0
2 5.5 0
2.125 5.5 0
2.25 5.5 0
2.375 5.5 0
2.5 5.5 0
2.625 5.5 0
2.75 5.5 0
2.875 5.5 0
3 5.5 0
3.125 5.5 0
3.25 5.5 0
3.375 5.5 0
3.5 5.5 0
3.625 5.5 0
3.75 5.5 0
3.875 5.5 0
4 5.5 0
4.125 5.5 0
4.25 5.5 0
4.375 5.5 0
4.5 5.5 0
4.625 5.5 0
4.75 5.5 0
4.875 5.5 0
5 5.5 0
5.125 5.5 0
5.25 5.5 0
5.375 5.5 0
5.5 5.5 0
5.625 5.5 0
5.75 5.5 0
5.875 5.5 0
6 5.5 0
6.125 5.5 0
6.25 5.5 0
6.375 5.5 0
6.5 5.5 0
6.625 5.5 0
6.75 5.5 0
6.875 5.5 0
7 5.5 0
7.125 5.5 0
7.25 5.5 0
7.375 5.5 0
7.5 5.5 0
7.625 5.5 0
7.75 5.5 0
7.875 5.5 0
8 5.5 0
0 5.625 0
0.125 5.625 0
0.25 5.625 0
0.375 5.625 0
0.5 5.625 0
0.625 5.625 0
0.75 5.625 0
0.875 5.625 0
1 5.625 0
1.125 5.625 0
1.25 5.625 0
1.375 5.625 0
1.5 5.625 0
1.625 5.625 0
1.75 5.625 0
1.875 5.625 0
2 5.625 0
2.125 5.625 0
2.25 5.625 0
2.375 5.625 0
2.5 5.625 0
2.625 5.625 0
2.75 5.625 0
2.875 5.625 0
3 5.625 0
3.125 5.625 0
3.25 5.625 0
3.375 5.625 0
3.5 5.625 0
3.625 5.625 0
3.75 5.625 0
3.875 5.625 0
4 5.625 0
4.125 5.625 0
4.25 5.625 0
4.375 5.625 0
4.5 5.625 0
4.625 5.625 0
4.75 5.625 0
4.875 5.625 0
5 5.625 0
5.125 5.625 0
5.25 5.625 0
5.375 5.625 0
5.5 5.625 0
5.625 5.625 0
5.75 5.625 0
5.875 5.625 0
6 5.625 0
6.125 5.625 0
6.25 5.625 0
6.375 5.625 0
6.5 5.625 0
6.625 5.625 0
6.75 5.625 0
6.875 5.625 0
7 5.625 0
7.125 5.625 0
7.25 5.625 0
7.375 5.625 0
7.5 5.625 0
7.625 5.625 0
7.75 5.625 0
7.875 5.625 0
8 5.625 0
0 5.75 0
0.125 5.75 0
0.25 5.75 0
0.375 5.75 0
0.5 5.75 0
0.625 5.75 0
0.75 5.75 0
0.875 5.75 0
1 5.75 0
1.125 5.75 0
1.25 5.75 0
1.375 5.75 0
1.5 5.75 0
1.625 5.75 0
1.75 5.75 0
1.875 5.75 0
2 5.75 0
2.125 5.75 0
2.25 5.75 0
2.375 5.75 0
2.5 5.75 0
2.625 5.75 0
2.75 5.75 0
2.875 5.75 0
3 5.75 0
3.125 5.75 0
3.25 5.75 0
3.375 5.75 0
3.5 5.75 0
3.625 5.75 0
3.75 5.75 0
3.875 5.75 0
4 5.75 0
4.125 5.75 0
4.25 5.75 0
4.375 5.75 0
4.5 5.75 0
4.625 5.75 0
4.75 5.75 0
4.875 5.75 0
5 5.75 0
5.125 5.75 0
5.25 5.75 0
5.375 5.75 0
5.5 5.75 0
5.625 5.75 0
5.75 5.75 0
5.875 5.75 0
6 5.75 0
6.125 5.75 0
6.25 5.75 0
6.375 5.75 0
6.5 5.75 0
6.625 5.75 0
6.75 5.75 0
6.875 5.75 0
7 5.75 0
7.125 5.75 0
7.25 5.75 0
7.375 5.75 0
7.5 5.75 0
7.625 5.75 0
7.75 5.75 0
7.875 5.75 0
8 5.75 0
0 5.875 0
0.125 5.875 0
0.25 5.875 0
0.375 5.875 0
0.5 5.875 0
0.625 5.875 0
0.75 5.875 0
0.875 5.875 0
1 5.875 0
1.125 5.875 0
1.25 5.875 0
1.375 5.875 0
1.5 5.875 0
1.625 5.875 0
1.75 5.875 0
1.875 5.875 0
2 5.875 0
2.125 5.875 0
2.25 5.875 0
2.375 5.875 0
2.5 5.875 0
2.625 5.875 0
2.75 5.875 0
2.875 5.875 0
3 5.875 0
3.125 5.875 0
3.25 5.875 0
3.375 5.875 0
3.5 5.875 0
3.625 5.875 0
3.75 5.875 0
3.875 5.875 0
4 5.875 0
4.125 5.875 0
4.25 5.875 0
4.375 5.875 0
4.5 5.875 0
4.625 5.875 0
4.75 5.875 0
4.875 5.875 0
5 5.875 0
5.125 5.875 0
5.25 5.875 0
5.375 5.875 0
5.5 5.875 0
5.625 5.875 0
5.75 5.875 0
5.875 5.875 0
6 5.875 0
6.125 5.875 0
6.25 5.875 0
6.375 5.875 0
6.5 5.875 0
6.625 5.875 0
6.75 5.875 0
6.875 5.875 0
7 5.875 0
7.125 5.875 0
7.25 5.875 0
7.375 5.875 0
7.5 5.875 0
7.625 5.875 0
7.75 5.875 0
7.875 5.875 0
8 5.875 0
0 6 0
0.125 6 0
0.25 6 0
0.375 6 0
0.5 6 0
0.625 6 0
0.75 6 0
0.875 6 0
1 6 0
1.125 6 0
1.25 6 0
1.375 6 0
1.5 6 0
1.625 6 0
1.75 6 0
1.875 6 0
2 6 0
2.125 6 0
2.25 6 0
2.375 6 0
2.5 6 0
2.625 6 0
2.75 6 0
2.875 6 0
3 6 0
3.125 6 0
3.25 6 0
3.375 6 0
3.5 6 0
3.625 6 0
3.75 6 0
3.875 6 0
4 6 0
4.125 6 0
4.25 6 0
4.375 6 0
4.5 6 0
4.625 6 0
4.75 6 0
4.875 6 0
5 6 0
5.125 6 0
5.25 6 0
5.375 6 0
5.5 6 0
5.625 6 0
5.75 6 0
5.875 6 0
6 6 0
6.125 6 0
6.25 6 0
6.375 6 0
6.5 6 0
6.625 6 0
6.75 6 0
6.875 6 0
7 6 0
7.125 6 0
7.25 6 0
7.375 6 0
7.5 6 0
7.625 6 0
7.75 6 0
7.875 6 0
8 6 0
0 6.125 0
0.125 6.125 0
0.25 6.125 0
0.375 6.125 0
0.5 6.125 0
0.625 6.125 0
0.75 6.125 0
0.875 6.125 0
1 6.125 0
1.125 6.125 0
1.25 6.125 0
1.375 6.125 0
1.5 6.125 0
1.625 6.125 0
1.75 6.125 0
1.875 6.125 0
2 6.125 0
2.125 6.125 0
2.25 6.125 0
2.375 6.125 0
2.5 6.125 0
2.625 6.125 0
2.75 6.125 0
2.875 6.125 0
3 6.125 0
3.125 6.125 0
3.25 6.125 0
3.375 6.125 0
3.5 6.125 0
3.625 6.125 0
3.75 6.125 0
3.875 6.125 0
4 6.125 0
4.125 6.125 0
4.25 6.125 0
4.375 6.125 0
4.5 6.125 0
4.625 6.125 0
4.75 6.125 0
4.875 6.125 0
5 6.125 0
5.125 6.125 0
5.25 6.125 0
5.375 6.125 0
5.5 6.125 0
5.625 6.125 0
5.75 6.125 0
5.875 6.125 0
6 6.125 0
6.125 6.125 0
6.25 6.125 0
6.375 6.125 0
6.5 6.125 0
6.625 6.125 0
6.75 6.125 0
6.875 6.125 0
7 6.125 0
7.125 6.125 0
7.25 6.125 0
7.375 6.125 0
7.5 6.125 0
7.625 6.125 0
7.75 6.125 0
7.875 6.125 0
8 6.125 0
0 6.25 0
0.125 6.25 0
0.25 6.25 0
0.375 6.25 0
0.5 6.25 0
0.625 6.25 0
0.75 6.25 0
0.875 6.25 0
1 6.25 0
1.125 6.25 0
1.25 6.25 0
1.375 6.25 0
1.5 6.25 0
1.625 6.25 0
1.75 6.25 0
1.875 6.25 0
2 6.25 0
2.125 6.25 0
2.25 6.25 0
2.375 6.25 0
2.5 6.25 0
2.625 6.25 0
2.75 6.25 0
2.875 6.25 0
3 6.25 0
3.125 6.25 0
3.25 6.25 0
3.375 6.25 0
3.5 6.25 0
3.625 6.25 0
3.75 6.25 0
3.875 6.25 0
4 6.25 0
4.125 6.25 0
4.25 6.25 0
4.375 6.25 0
4.5 6.25 0
4.625 6.25 0
4.75 6.25 0
4.875 6.25 0
5 6.25 0
5.125 6.25 0
5.25 6.25 0
5.375 6.25 0
5.5 6.25 0
5.625 6.25 0
5.75 6.25 0
5.875 6.25 0
6 6.25 0
6.125 6.25 0
6.25 6.25 0
6.375 6.25 0
6.5 6.25 0
6.625 6.25 0
6.75 6.25 0
6.875 6.25 0
7 6.25 0
7.125 6.25 0
7.25 6.25 0
7.375 6.25 0
7.5 6.25 0
7.625 6.25 0
7.75 6.25 0
7.875 6.25 0
8 6.25 0
0 6.375 0
0.125 6.375 0
0.25 6.375 0
0.375 6.375 0
0.5 6.375 0
0.625 6.375 0
0.75 6.375 0
0.875 6.375 0
1 6.375 0
1.125 6.375 0
1.25 6.375 0
1.375 6.375 0
1.5 6.375 0
1.625 6.375 0
1.75 6.375 0
1.875 6.375 0
2 6.375 0
2.125 6.375 0
2.25 6.375 0
2.375 6.375 0
2.5 6.375 0
2.625 6.375 0
2.75 6.375 0
2.875 6.375 0
3 6.375 0
3.125 6.375 0
3.25 6.375 0
3.375 6.375 0
3.5 6.375 0
3.625 6.375 0
3.75 6.375 0
3.875 6.375 0
4 6.375 0
4.125 6.375 0
4.25 6.375 0
4.375 6.375 0
4.5 6.375 0
4.625 6.375 0
4.75 6.375 0
4.875 6.375 0
5 6.375 0
5.125 6.375 0
5.25 6.375 0
5.375 6.375 0
5.5 6.375 0
5.625 6.375 0
5.75 6.375 0
5.875 6.375 0
6 6.375 0
6.125 6.375 0
6.25 6.375 0
6.375 6.375 0
6.5 6.375 0
6.625 6.375 0
6.75 6.375 0
6.875 6.375 0
7 6.375 0
7.125 6.375 0
7.25 6.375 0
7.375 6.375 0
7.5 6.375 0
7.625 6.375 0
7.75 6.375 0
7.875 6.375 0
8 6.375 0
0 6.5 0
0.125 6.5 0
0.25 6.5 0
0.375 6.5 0
0.5 6.5 0
0.625 6.5 0
0.75 6.5 0
0.875 6.5 0
1 6.5 0
1.125 6.5 0
1.25 6.5 0
1.375 6.5 0
1.5 6.5 0
1.625 6.5 0
1.75 6.5 0
1.875 6.5 0
2 6.5 0
2.125 6.5 0
2.25 6.5 0
2.375 6.5 0
2.5 6.5 0
2.625 6.5 0
2.75 6.5 0
2.875 6.5 0
3 6.5 0
3.125 6.5 0
3.25 6.5 0
3.375 6.5 0
3.5 6.5 0
3.625 6.5 0
3.75 6.5 0
3.875 6.5 0
4 6.5 0
4.125 6.5 0
4.25 6.5 0
4.375 6.5 0
4.5 6.5 0
4.625 6.5 0
4.75 6.5 0
4.875 6.5 0
5 6.5 0
5.125 6.5 0
5.25 6.5 0
5.375 6.5 0
5.5 6.5 0
5.625 6.5 0
5.75 6.5 0
5.875 6.5 0
6 6.5 0
6.125 6.5 0
6.25 6.5 0
6.375 6.5 0
6.5 6.5 0
6.625 6.5 0
6.75 6.5 0
6.875 6.5 0
7 6.5 0
7.125 6.5 0
7.25 6.5 0
7.375 6.5 0
7.5 6.5 0
7.625 6.5 0
7.75 6.5 0
7.875 6.5 0
8 6.5 0
0 6.625 0
0.125 6.625 0
0.25 6.625 0
0.375 6.625 0
0.5 6.625 0
0.625 6.625 0
0.75 6.625 0
0.875 6.625 0
1 6.625 0
1.125 6.625 0
1.25 6.625 0
1.375 6.625 0
1.5 6.625 0
1.625 6.625 0
1.75 6.625 0
1.875 6.625 0
2 6.625 0
2.125 6.625 0
2.25 6.625 0
2.375 6.625 0
2.5 6.625 0
2.625 6.625 0
2.75 6.625 0
2.875 6.625 0
3 6.625 0
3.125 6.625 0
3.25 6.625 0
3.375 6.625 0
3.5 6.625 0
3.625 6.625 0
3.75 6.625 0
3.875 6.625 0
4 6.625 0
4.125 6.625 0
4.25 6.625 0
4.375 6.625 0
4.5 6.625 0
4.625 6.625 0
4.75 6.625 0
4.875 6.625 0
5 6.625 0
5.125 6.625 0
5.25 6.625 0
5.375 6.625 0
5.5 6.625 0
5.625 6.625 0
5.75 6.625 0
5.875 6.625 0
6 6.625 0
6.125 6.625 0
6.25 6.625 0
6.375 6.625 0
6.5 6.625 0
6.625 6.625 0
6.75 6.625 0
6.875 6.625 0
7 6.625 0
7.125 6.625 0
7.25 6.625 0
7.375 6.625 0
7.5 6.625 0
7.625 6.625 0
7.75 6.625 0
7.875 6.625 0
8 6.625 0
0 6.75 0
0.125 6.75 0
0.25 6.75 0
0.375 6.75 0
0.5 6.75 0
0.625 6.75 0
0.75 6.75 0
0.875 6.75 0
1 6.75 0
1.125 6.75 0
1.25 6.75 0
1.375 6.75 0
1.5 6.75 0
1.625 6.75 0
1.75 6.75 0
1.875 6.75 0
2 6.75 0
2.125 6.75 0
2.25 6.75 0
2.375 6.75 0
2.5 6.75 0
2.625 6.75 0
2.75 6.75 0
2.875 6.75 0
3 6.75 0
3.125 6.75 0
3.25 6.75 0
3.375 6.75 0
3.5 6.75 0
3.625 6.75 0
3.75 6.75 0
3.875 6.75 0
4 6.75 0
4.125 6.75 0
4.25 6.75 0
4.375 6.75 0
4.5 6.75 0
4.625 6.75 0
4.75 6.75 0
4.875 6.75 0
5 6.75 0
5.125 6.75 0
5.25 6.75 0
5.375 6.75 0
5.5 6.75 0
5.625 6.75 0
5.75 6.75 0
5.875 6.75 0
6 6.75 0
6.125 6.75 0
6.25 6.75 0
6.375 6.75 0
6.5 6.75 0
6.625 6.75 0
6.75 6.75 0
6.875 6.75 0
7 6.75 0
7.125 6.75 0
7.25 6.75 0
7.375 6.75 0
7.5 6.75 0
7.625 6.75 0
7.75 6.75 0
7.875 6.75 0
8 6.75 0
0 6.875 0
0.125 6.875 0
0.25 6.875 0
0.375 6.875 0
0.5 6.875 0
0.625 6.875 0
0.75 6.875 0
0.875 6.875 0
1 6.875 0
1.125 6.875 0
1.25 6.875 0
1.375 6.875 0
1.5 6.875 0
1.625 6.875 0
1.75 6.875 0
1.875 6.875 0
2 6.875 0
2.125 6.875 0
2.25 6.875 0
2.375 6.875 0
2.5 6.875 0
2.625 6.875 0
2.75 6.875 0
2.875 6.875 0
3 6.875 0
3.125 6.875 0
3.25 6.875 0
3.375 6.875 0
3.5 6.875 0
3.625 6.875 0
3.75 6.875 0
3.875 6.875 0
4 6.875 0
4.125 6.875 0
4.25 6.875 0
4.375 6.875 0
4.5 6.875 0
4.625 6.875 0
4.75 6.875 0
4.875 6.875 0
5 6.875 0
5.125 6.875 0
5.25 6.875 0
5.375 6.875 0
5.5 6.875 0
5.625 6.875 0
5.75 6.875 0
5.875 6.875 0
6 6.875 0
6.125 6.875 0
6.25 6.875 0
6.375 6.875 0
6.5 6.875 0
6.625 6.875 0
6.75 6.875 0
6.875 6.875 0
7 6.875 0
7.125 6.875 0
7.25 6.875 0
7.375 6.875 0
7.5 6.875 0
7.625 6.875 0
7.75 6.875 0
7.875 6.875 0
8 6.875 0
0 7 0
0.125 7 0
0.25 7 0
0.375 7 0
0.5 7 0
0.625 7 0
0.75 7 0
0.875 7 0
1 7 0
1.125 7 0
1.25 7 0
1.375 7 0
1.5 7 0
1.625 7 0
1.75 7 0
1.875 7 0
2 7 0
2.125 7 0
2.25 7 0
2.375 7 0
2.5 7 0
2.625 7 0
2.75 7 0
2.875 7 0
3 7 0
3.125 7 0
3.25 7 0
3.375 7 0
3.5 7 0
3.625 7 0
3.75 7 0
3.875 7 0
4 7 0
4.125 7 0
4.25 7 0
4.375 7 0
4.5 7 0
4.625 7 0
4.75 7 0
4.875 7 0
5 7 0
5.125 7 0
5.25 7 0
5.375 7 0
5.5 7 0
5.625 7 0
5.75 7 0
5.875 7 0
6 7 0
6.125 7 0
6.25 7 0
6.375 7 0
6.5 7 0
6.625 7 0
6.75 7 0
6.875 7 0
7 7 0
7.125 7 0
7.25 7 0
7.375 7 0
7.5 7 0
7.625 7 0
7.75 7 0
7.875 7 0
8 7 0
0 7.125 0
0.125 7.125 0
0.25 7.125 0
0.375 7.125 0
0.5 7.125 0
0.625 7.125 0
0.75 7.125 0
0.875 7.125 0
1 7.125 0
1.125 7.125 0
1.25 7.125 0
1.375 7.125 0
1.5 7.125 0
1.625 7.125 0
1.75 7.125 0
1.875 7.125 0
2 7.125 0
2.125 7.125 0
2.25 7.125 0
2.375 7.125 0
2.5 7.125 0
2.625 7.125 0
2.75 7.125 0
2.875 7.125 0
3 7.125 0
3.125 7.125 0
3.25 7.125 0
3.375 7.125 0
3.5 7.125 0
3.625 7.125 0
3.75 7.125 0
3.875 7.125 0
4 7.125 0
4.125 7.125 0
4.25 7.125 0
4.375 7.125 0
4.5 7.125 0
4.625 7.125 0
4.75 7.125 0
4.875 7.125 0
5 7.125 0
5.125 7.125 0
5.25 7.125 0
5.375 7.125 0
5.5 7.125 0
5.625 7.125 0
5.75 7.125 0
5.875 7.125 0
6 7.125 0
6.125 7.125 0
6.25 7.125 0
6.375 7.125 0
6.5 7.125 0
6.625 7.125 0
6.75 7.125 0
6.875 7.125 0
7 7.125 0
7.125 7.125 0
7.25 7.125 0
7.375 7.125 0
7.5 7.125 0
7.625 7.125 0
7.75 7.125 0
7.875 7.125 0
8 7.125 0
0 7.25 0
0.125 7.25 0
0.25 7.25 0
0.375 7.25 0
0.5 7.25 0
0.625 7.25 0
0.75 7.25 0
0.875 7.25 0
1 7.25 0
1.125 7.25 0
1.25 7.25 0
1.375 7.25 0
1.5 7.25 0
1.625 7.25 0
1.75 7.25 0
1.875 7.25 0
2 7.25 0
2.125 7.25 0
2.25 7.25 0
2.375 7.25 0
2.5 7.25 0
2.625 7.25 0
2.75 7.25 0
2.875 7.25 0
3 7.25 0
3.125 7.25 0
3.25 7.25 0
3.375 7.25 0
3.5 7.25 0
3.625 7.25 0
3.75 7.25 0
3.875 7.25 0
4 7.25 0
4.125 7.25 0
4.25 7.25 0
4.375 7.25 0
4.5 7.25 0
4.625 7.25 0
4.75 7.25 0
4.875 7.25 0
5 7.25 0
5.125 7.25 0
5.25 7.25 0
5.375 7.25 0
5.5 7.25 0
5.625 7.25 0
5.75 7.25 0
5.875 7.25 0
6 7.25 0
6.125 7.25 0
6.25 7.25 0
6.375 7.25 0
6.5 7.25 0
6.625 7.25 0
6.75 7.25 0
6.875 7.25 0
7 7.25 0
7.125 7.25 0
7.25 7.25 0
7.375 7.25 0
7.5 7.25 0
7.625 7.25 0
7.75 7.25 0
7.875 7.25 0
8 7.25 0
0 7.375 0
0.125 7.375 0
0.25 7.375 0
0.375 7.375 0
0.5 7.375 0
0.625 7.375 0
0.75 7.375 0
0.875 7.375 0
1 7.375 0
1.125 7.375 0
1.25 7.375 0
1.375 7.375 0
1.5 7.375 0
1.625 7.375 0
1.75 7.375 0
1.875 7.375 0
2 7.375 0
2.125 7.375 0
2.25 7.375 0
2.375 7.375 0
2.5 7.375 0
2.625 7.375 0
2.75 7.375 0
2.875 7.375 0
3 7.375 0
3.125 7.375 0
3.25 7.375 0
3.375 7.375 0
3.5 7.375 0
3.625 7.375 0
3.75 7.375 0
3.875 7.375 0
4 7.375 0
4.125 7.375 0
4.25 7.375 0
4.375 7.375 0
4.5 7.375 0
4.625 7.375 0
4.75 7.375 0
4.875 7.375 0
5 7.375 0
5.125 7.375 0
5.25 7.375 0
5.375 7.375 0
5.5 7.375 0
5.625 7.375 0
5.75 7.375 0
5.875 7.375 0
6 7.375 0
6.125 7.375 0
6.25 7.375 0
6.375 7.375 0
6.5 7.375 0
6.625 7.375 0
6.75 7.375 0
6.875 7.375 0
7 7.375 0
7.125 7.375 0
7.25 7.375 0
7.375 7.375 0
7.5 7.375 0
7.625 7.375 0
7.75 7.375 0
7.875 7.375 0
8 7.375 0
0 7.5 0
0.125 7.5 0
0.25 7.5 0
0.375 7.5 0
0.5 7.5 0
0.625 7.5 0
0.75 7.5 0
0.875 7.5 0
1 7.5 0
1.125 7.5 0
1.25 7.5 0
1.375 7.5 0
1.5 7.5 0
1.625 7.5 0
1.75 7.5 0
1.875 7.5 0
2 7.5 0
2.125 7.5 0
2.25 7.5 0
2.375 7.5 0
2.5 7.5 0
2.625 7.5 0
2.75 7.5 0
2.875 7.5 0
3 7.5 0
3.125 7.5 0
3.25 7.5 0
3.375 7.5 0
3.5 7.5 0
3.625 7.5 0
3.75 7.5 0
3.875 7.5 0
4 7.5 0
4.125 7.5 0
4.25 7.5 0
4.375 7.5 0
4.5 7.5 0
4.625 7.5 0
4.75 7.5 0
4.875 7.5 0
5 7.5 0
5.125 7.5 0
5.25 7.5 0
5.375 7.5 0
5.5 7.5 0
5.625 7.5 0
5.75 7.5 0
5.875 7.5 0
6 7.5 0
6.125 7.5 0
6.25 7.5 0
6.375 7.5 0
6.5 7.5 0
6.625 7.5 0
6.75 7.5 0
6.875 7.5 0
7 7.5 0
7.125 7.5 0
7.25 7.5 0
7.375 7.5 0
7.5 7.5 0
7.625 7.5 0
7.75 7.5 0
7.875 7.5 0
8 7.5 0
0 7.625 0
0.125 7.625 0
0.25 7.625 0
0.375 7.625 0
0.5 7.625 0
0.625 7.625 0
0.75 7.625 0
0.875 7.625 0
1 7.625 0
1.125 7.625 0
1.25 7.625 0
1.375 7.625 0
1.5 7.625 0
1.625 7.625 0
1.75 7.625 0
1.875 7.625 0
2 7.625 0
2.125 7.625 0
2.25 7.625 0
2.375 7.625 0
2.5 7.625 0
2.625 7.625 0
2.75 7.625 0
2.875 7.625 0
3 7.625 0
3.125 7.625 0
3.25 7.625 0
3.375 7.625 0
3.5 7.625 0
3.625 7.625 0
3.75 7.625 0
3.875 7.625 0
4 7.625 0
4.125 7.625 0
4.25 7.625 0
4.375 7.625 0
4.5 7.625 0
4.625 7.625 0
4.75 7.625 0
4.875 7.625 0
5 7.625 0
5.125 7.625 0
5.25 7.625 0
5.375 7.625 0
5.5 7.625 0
5.625 7.625 0
5.75 7.625 0
5.875 7.625 0
6 7.625 0
6.125 7.625 0
6.25 7.625 0
6.375 7.625 0
6.5 7.625 0
6.625 7.625 0
6.75 7.625 0
6.875 7.625 0
7 7.625 0
7.125 7.625 0
7.25 7.625 0
7.375 7.625 0
7.5 7.625 0
7.625 7.625 0
7.75 7.625 0
7.875 7.625 0
8 7.625 0
0 7.75 0
0.125 7.75 0
0.25 7.75 0
0.375 7.75 0
0.5 7.75 0
0.625 7.75 0
0.75 7.75 0
0.875 7.75 0
1 7.75 0
1.125 7.75 0
1.25 7.75 0
1.375 7.75 0
1.5 7.75 0
1.625 7.75 0
1.75 7.75 0
1.875 7.75 0
2 7.75 0
2.125 7.75 0
2.25 7.75 0
2.375 7.75 0
2.5 7.75 0
2.625 7.75 0
2.75 7.75 0
2.875 7.75 0
3 7.75 0
3.125 7.75 0
3.25 7.75 0
3.375 7.75 0
3.5 7.75 0
3.625 7.75 0
3.75 7.75 0
3.875 7.75 0
4 7.75 0
4.125 7.75 0
4.25 7.75 0
4.375 7.75 0
4.5 7.75 0
4.625 7.75 0
4.75 7.75 0
4.875 7.75 0
5 7.75 0
5.125 7.75 0
5.25 7.75 0
5.375 7.75 0
5.5 7.75 0
5.625 7.75 0
5.75 7.75 0
5.875 7.75 0
6 7.75 0
6.125 7.75 0
6.25 7.75 0
6.375 7.75 0
6.5 7.75 0
6.625 7.75 0
6.75 7.75 0
6.875 7.75 0
7 7.75 0
7.125 7.75 0
7.25 7.75 0
7.375 7.75 0
7.5 7.75 0
7.625 7.75 0
7.75 7.75 0
7.875 7.75 0
8 7.75 0
0 7.875 0
0.125 7.875 0
0.25 7.875 0
0.375 7.875 0
0.5 7.875 0
0.625 7.875 0
0.75 7.875 0
0.875 7.875 0
1 7.875 0
1.125 7.875 0
1.25 7.875 0
1.375 7.875 0
1.5 7.875 0
1.625 7.875 0
1.75 7.875 0
1.875 7.875 0
2 7.875 0
2.125 7.875 0
2.25 7.875 0
2.375 7.875 0
2.5 7.875 0
2.625 7.875 0
2.75 7.875 0
2.875 7.875 0
3 7.875 0
3.125 7.875 0
3.25 7.875 0
3.375 7.875 0
3.5 7.875 0
3.625 7.875 0
3.75 7.875 0
3.875 7.875 0
4 7.875 0
4.125 7.875 0
4.25 7.875 0
4.375 7.875 0
4.5 7.875 0
4.625 7.875 0
4.75 7.875 0
4.875 7.875 0
5 7.875 0
5.125 7.875 0
5.25 7.875 0
5.375 7.875 0
5.5 7.875 0
5.625 7.875 0
5.75 7.875 0
5.875 7.875 0
6 7.875 0
6.125 7.875 0
6.25 7.875 0
6.375 7.875 0
6.5 7.875 0
6.625 7.875 0
6.75 7.875 0
6.875 7.875 0
7 7.875 0
7.125 7.875 0
7.25 7.875 0
7.375 7.875 0
7.5 7.875 0
7.625 7.875 0
7.75 7.875 0
7.875 7.875 0
8 7.875 0
0 8 0
0.125 8 0
0.25 8 0
0.375 8 0
0.5 8 0
0.625 8 0
0.75 8 0
0.875 8 0
1 8 0
1.125 8 0
1.25 8 0
1.375 8 0
1.5 8 0
1.625 8 0
1.75 8 0
1.875 8 0
2 8 0
2.125 8 0
2.25 8 0
2.375 8 0
2.5 8 0
2.625 8 0
2.75 8 0
2.875 8 0
3 8 0
3.125 8 0
3.25 8 0
3.375 8 0
3.5 8 0
3.625 8 0
3.75 8 0
3.875 8 0
4 8 0
4.125 8 0
4.25 8 0
4.375 8 0
4.5 8 0
4.625 8 0
4.75 8 0
4.875 8 0
5 8 0
5.125 8 0
5.25 8 0
5.375 8 0
5.5 8 0
5.625 8 0
5.75 8 0
5.875 8 0
6 8 0
6.125 8 0
6.25 8 0
6.375 8 0
6.5 8 0
6.625 8 0
6.75 8 0
6.875 8 0
7 8 0
7.125 8 0
7.25 8 0
7.375 8 0
7.5 8 0
7.625 8 0
7.75 8 0
7.875 8 0
8 8 0
CELLS 4096 20480
4 0 1 66 65
4 1 2 67 66
4 2 3 68 67
4 3 4 69 68
4 4 5 70 69
4 5 6 71 70
4 6 7 72 71
4 7 8 73 72
4 8 9 74 73
4 9 10 75 74
4 10 11 76 75
4 11 12 77 76
4 12 13 78 77
4 13 14 79 78
4 14 15 80 79
4 15 16 81 80
4 16 17 82 81
4 17 18 83 82
4 18 19 84 83
4 19 20 85 84
4 20 21 86 85
4 21 22 87 86
4 22 23 88 87
4 23 24 89 88
4 24 25 90 89
4 25 26 91 90
4 26 27 92 91
4 27 28 93 92
4 28 29 94 93
4 29 30 95 94
4 30 31 96 95
4 31 32 97 96
4 32 33 98 97
4 33 34 99 98
4 34 35 100 99
4 35 36 101 100
4 36 37 102 101
4 37 38 103 102
4 38 39 104 103
4 39 40 105 104
4 40 41 106 105
4 41 42 107 106
4 42 43 108 107
4 43 44 109 108
4 44 45 110 109
4 45 46 111 110
4 46 47 112 111
4 47 48 113 112
4 48 49 114 113
4 49 50 115 114
4 50 51 116 115
4 51 52 117 116
4 52 53 118 117
4 53 54 119 118
4 54 55 120 119
4 55 56 121 120
4 56 57 122 121
4 57 58 123 122
4 58 59 124 123
4 59 60 125 124
4 60 61 126 125
4 61 62 127 126
4 62 63 128 127
4 63 64 129 128
4 65 66 131 130
4 66 67 132 131
4 67 68 133 132
4 68 69 134 133
4 69 70 135 134
4 70 71 136 135
4 71 72 137 136
4 72 73 138 137
4 73 74 139 138
4 74 75 140 139
4 75 76 141 140
4 76 77 142 141
4 77 78 143 142
4 78 79 144 143
4 79 80 145 144
4 80 81 146 145
4 81 82 147 146
4 82 83 148 147
4 83 84 149 148
4 84 85 150 149
4 85 86 151 150
4 86 87 152 151
4 87 88 153 152
4 88 89 154 153
4 89 90 155 154
4 90 91 156 155
4 91 92 157 156
4 92 93 158 157
4 93 94 159 158
4 94 95 160 159
4 95 96 161 160
4 96 97 162 161
4 97 98 163 162
4 98 99 164 163
4 99 100 165 164
4 100 101 166 165
4 101 102 167 166
4 102 103 168 167
4 103 104 169 168
4 104 105 170 169
4 105 106 171 170
4 106 107 172 171
4 107 108 173 172
4 108 109 174 173
4 109 110 175 174
4 110 111 176 175
4 111 112 177 176
4 112 113 178 177
4 113 114 179 178
4 114 115 180 179
4 115 116 181 180
4 116 117 182 181
4 117 118 183 182
4 118 119 184 183
4 119 120 185 184
4 120 121 186 185
4 121 122 187 186
4 122 123 188 187
4 123 124 189 188
4 124 125 190 189
4 125 126 191 190
4 126 127 192 191
4 127 128 193 192
4 128 129 194 193
4 130 131 196 195
4 131 132 197 196
4 132 133 198 197
4 133 134 199 198
4 134 135 200 199
4 135 136 201 200
4 136 137 202 201
4 137 138 203 202
4 138 139 204 203
4 139 140 205 204
4 140 141 206 205
4 141 142 207 206
4 142 143 208 207
4 143 144 209 208
4 144 145 210 209
4 145 146 211 210
4 146 147 212 211
4 147 148 213 212
4 148 149 214 213
4 149 150 215 214
4 150 151 216 215
4 151 152 217 216
4 152 153 218 217
4 153 154 219 218
4 154 155 220 219
4 155 156 221 220
4 156 157 222 221
4 157 158 223 222
4 158 159 224 223
4 159 160 225 224
4 160 161 226 225
4 161 162 227 226
4 162 163 228 227
4 163 164 229 228
4 164 165 230 229
4 165 166 231 230
4 166 167 232 231
4 167 168 233 232
4 168 169 234 233
4 169 170 235 234
4 170 171 236 235
4 171 172 237 236
4 172 173 238 237
4 173 174 239 238
4 174 175 240 239
4 175 176 241 240
4 176 177 242 241
4 177 178 243 242
4 178 179 244 243
4 179 180 245 244
4 180 181 246 245
4 181 182 247 246
4 182 183 248 247
4 183 184 249 248
4 184 185 250 249
4 185 186 251 250
4 186 187 252 251
4 187 188 253 252
4 188 189 254 253
4 189 190 255 254
4 190 191 256 255
4 191 192 257 256
4 192 193 258 257
4 193 194 259 258
4 195 196 261 260
4 196 197 262 261
4 197 198 263 262
4 198 199 264 263
4 199 200 265 264
4 200 201 266 265
4 201 202 267 266
4 202 203 268 267
4 203 204 269 268
4 204 205 270 269
4 205 206 271 270
4 206 207 272 271
4 207 208 273 272
4 208 209 274 273
4 209 210 275 274
4 210 211 276 275
4 211 212 277 276
4 212 213 278 277
4 213 214 279 278
4 214 215 280 279
4 215 216 281 280
4 216 217 282 281
4 217 218 283 282
4 218 219 284 283
4 219 220 285 284
4 220 221 286 285
4 221 222 287 286
4 222 223 288 287
4 223 224 289 288
4 224 225 290 289
4 225 226 291 290
4 226 227 292 291
4 227 228 293 292
4 228 229 294 293
4 229 230 295 294
4 230 231 296 295
4 231 232 297 296
4 232 233 298 297
4 233 234 299 298
4 234 235 300 299
4 235 236 301 300
4 236 237 302 301
4 237 238 303 302
4 238 239 304 303
4 239 240 305 304
4 240 241 306 305
4 241 242 307 306
4 242 243 308 307
4 243 244 309 308
4 244 245 310 309
4 245 246 311 310
4 246 247 312 311
4 247 248 313 312
4 248 249 314 313
4 249 250 315 314
4 250 251 316 315
4 251 252 317 316
4 252 253 318 317
4 253 254 319 318
4 254 255 320 319
4 255 256 321 320
4 256 257 322 321
4 257 258 323 322
4 258 259 324 323
4 260 261 326 325
4 261 262 327 326
4 262 263 328 327
4 263 264 329 328
4 264 265 330 329
4 265 266 331 330
4 266 267 332 331
4 267 268 333 332
4 268 269 334 333
4 269 270 335 334
4 270 271 336 335
4 271 272 337 336
4 272 273 338 337
4 273 274 339 338
4 274 275 340 339
4 275 276 341 340
4 276 277 342 341
4 277 278 343 342
4 278 279 344 343
4 279 280 345 344
4 280 281 346 345
4 281 282 347 346
4 282 283 348 347
4 283 284 349 348
4 284 285 350 349
4 285 286 351 350
4 286 287 352 351
4 287 288 353 352
4 288 289 354 353
4 289 290 355 354
4 290 291 356 355
4 291 292 357 356
4 292 293 358 357
4 293 294 359 358
4 294 295 360 359
4 295 296 361 360
4 296 297 362 361
4 297 298 363 362
4 298 299 364 363
4 299 300 365 364
4 300 301 366 365
4 301 302 367 366
4 302 303 368 367
4 303 304 369 368
4 304 305 370 369
4 305 306 371 370
4 306 307 372 371
4 307 308 373 372
4 308 309 374 373
4 309 310 375 374
4 310 311 376 375
4 311 312 377 376
4 312 313 378 377
4 313 314 379 378
4 314 315 380 379
4 315 316 381 380
4 316 317 382 381
4 317 318 383 382
4 318 319 384 383
4 319 320 385 384
4 320 321 386 385
4 321 322 387 386
4 322 323 388 387
4 323 324 389 388
4 325 326 391 390
4 326 327 392 391
4 327 328 393 392
4 328 329 394 393
4 329 330 395 394
4 330 331 396 395
4 331 332 397 396
4 332 333 398 397
4 333 334 399 398
4 334 335 400 399
4 335 336 401 400
4 336 337 402 401
4 337 338 403 402
4 338 339 404 403
4 339 340 405 404
4 340 341 406 405
4 341 342 407 406
4 342 343 408 407
4 343 344 409 408
4 344 345 410 409
4 345 346 411 410
4 346 347 412 411
4 347 348 413 412
4 348 349 414 413
4 349 350 415 414
4 350 351 416 415
4 351 352 417 416
4 352 353 418 417
4 353 354 419 418
4 354 355 420 419
4 355 356 421 420
4 356 357 422 421
4 357 358 423 422
4 358 359 424 423
4 359 360 425 424
4 360 361 426 425
4 361 362 427 426
4 362 363 428 427
4 363 364 429 428
4 364 365 430 429
4 365 366 431 430
4 366 367 432 431
4 367 368 433 432
4 368 369 434 433
4 369 370 435 434
4 370 371 436 435
4 371 372 437 436
4 372 373 438 437
4 373 374 439 438
4 374 375 440 439
4 375 376 441 440
4 376 377 442 441
4 377 378 443 442
4 378 379 444 443
4 379 380 445 444
4 380 381 446 445
4 381 382 447 446
4 382 383 448 447
4 383 384 449 448
4 384 385 450 449
4 385 386 451 450
4 386 387 452 451
4 387 388 453 452
4 388 389 454 453
4 390 391 456 455
4 391 392 457 456
4 392 393 458 457
4 393 394 459 458
4 394 395 460 459
4 395 396 461 460
4 396 397 462 461
4 397 398 463 462
4 398 399 464 463
4 399 400 465 464
4 400 401 466 465
4 401 402 467 466
4 402 403 468 467
4 403 404 469 468
4 404 405 470 469
4 405 406 471 470
4 406 407 472 471
4 407 408 473 472
4 408 409 474 473
4 409 410 475 474
4 410 411 476 475
4 411 412 477 476
4 412 413 478 477
4 413 414 479 478
4 414 415 480 479
4 415 416 481 480
4 416 417 482 481
4 417 418 483 482
4 418 419 484 483
4 419 420 485 484
4 420 421 486 485
4 421 422 487 486
4 422 423 488 487
4 423 424 489 488
4 424 425 490 489
4 425 426 491 490
4 426 427 492 491
4 427 428 493 492
4 428 429 494 493
4 429 430 495 494
4 430 431 496 495
4 431 432 497 496
4 432 433 498 497
4 433 434 499 498
4 434 435 500 499
4 435 436 501 500
4 436 437 502 501
4 437 438 503 502
4 438 439 504 503
4 439 440 505 504
4 440 441 506 505
4 441 442 507 506
4 442 443 508 507
4 443 444 509 508
4 444 445 510 509
4 445 446 511 510
4 446 447 512 511
4 447 448 513 512
4 448 449 514 513
4 449 450 515 514
4 450 451 516 515
4 451 452 517 516
4 452 453 518 517
4 453 454 519 518
4 455 456 521 520
4 456 457 522 521
4 457 458 523 522
4 458 459 524 523
4 459 460 525 524
4 460 461 526 525
4 461 462 527 526
4 462 463 528 527
4 463 464 529 528
4 464 465 530 529
4 465 466 531 530
4 466 467 532 531
4 467 468 533 532
4 468 469 534 533
4 469 470 535 534
4 470 471 536 535
4 471 472 537 536
4 472 473 538 537
4 473 474 539 538
4 474 475 540 539
4 475 476 541 540
4 476 477 542 541
4 477 478 543 542
4 478 479 544 543
4 479 480 545 544
4 480 481 546 545
4 481 482 547 546
4 482 483 548 547
4 483 484 549 548
4 484 485 550 549
4 485 486 551 550
4 486 487 552 551
4 487 488 553 552
4 488 489 554 553
4 489 490 555 554
4 490 491 556 555
4 491 492 557 556
4 492 493 558 557
4 493 494 559 558
4 494 495 560 559
4 495 496 561 560
4 496 497 562 561
4 497 498 563 562
4 498 499 564 563
4 499 500 565 564
4 500 501 566 565
4 501 502 567 566
4 502 503 568 567
4 503 504 569 568
4 504 505 570 569
4 505 506 571 570
4 506 507 572 571
4 507 508 573 572
4 508 509 574 573
4 509 510 575 574
4 510 511 576 575
4 511 512 577 576
4 512 513 578 577
4 513 514 579 578
4 514 515 580 579
4 515 516 581 580
4 516 517 582 581
4 517 518 583 582
4 518 519 584 583
4 520 521 586 585
4 521 522 587 586
4 522 523 588 587
4 523 524 589 588
4 524 525 590 589
4 525 526 591 590
4 526 527 592 591
4 527 528 593 592
4 528 529 594 593
4 529 530 595 594
4 530 531 596 595
4 531 532 597 596
4 532 533 598 597
4 533 534 599 598
4 534 535 600 599
4 535 536 601 600
4 536 537 602 601
4 537 538 603 602
4 538 539 604 603
4 539 540 605 604
4 540 541 606 605
4 541 542 607 606
4 542 543 608 607
4 543 544 609 608
4 544 545 610 609
4 545 546 611 610
4 546 547 612 611
4 547 548 613 612
4 548 549 614 613
4 549 550 615 614
4 550 551 616 615
4 551 552 617 616
4 552 553 618 617
4 553 554 619 618
4 554 555 620 619
4 555 556 621 620
4 556 557 622 621
4 557 558 623 622
4 558 559 624 623
4 559 560 625 624
4 560 561 626 625
4 561 562 627 626
4 562 563 628 627
4 563 564 629 628
4 564 565 630 629
4 565 566 631 630
4 566 567 632 631
4 567 568 633 632
4 568 569 634 633
4 569 570 635 634
4 570 571 636 635
4 571 572 637 636
4 572 573 638 637
4 573 574 639 638
4 574 575 640 639
4 575 576 641 640
4 576 577 642 641
4 577 578 643 642
4 578 579 644 643
4 579 580 645 644
4 580 581 646 645
4 581 582 647 646
4 582 583 648 647
4 583 584 649 648
4 585 586 651 650
4 586 587 652 651
4 587 588 653 652
4 588 589 654 653
4 589 590 655 654
4 590 591 656 655
4 591 592 657 656
4 592 593 658 657
4 593 594 659 658
4 594 595 660 659
4 595 596 661 660
4 596 597 662 661
4 597 598 663 662
4 598 599 664 663
4 599 600 665 664
4 600 601 666 665
4 601 602 667 666
4 602 603 668 667
4 603 604 669 668
4 604 605 670 669
4 605 606 671 670
4 606 607 672 671
4 607 608 673 672
4 608 609 674 673
4 609 610 675 674
4 610 611 676 675
4 611 612 677 676
4 612 613 678 677
4 613 614 679 678
4 614 615 680 679
4 615 616 681 680
4 616 617 682 681
4 617 618 683 682
4 618 619 684 683
4 619 620 685 684
4 620 621 686 685
4 621 622 687 686
4 622 623 688 687
4 623 624 689 688
4 624 625 690 689
4 625 626 691 690
4 626 627 692 691
4 627 628 693 692
4 628 629 694 693
4 629 630 695 694
4 630 631 696 695
4 631 632 697 696
4 632 633 698 697
4 633 634 699 698
4 634 635 700 699
4 635 636 701 700
4 636 637 702 701
4 637 638 703 702
4 638 639 704 703
4 639 640 705 704
4 640 641 706 705
4 641 642 707 706
4 642 643 708 707
4 643 644 709 708
4 644 645 710 709
4 645 646 711 710
4 646 647 712 711
4 647 648 713 712
4 648 649 714 713
4 650 651 716 715
4 651 652 717 716
4 652 653 718 717
4 653 654 719 718
4 654 655 720 719
4 655 656 721 720
4 656 657 722 721
4 657 658 723 722
4 658 659 724 723
4 659 660 725 724
4 660 661 726 725
4 661 662 727 726
4 662 663 728 727
4 663 664 729 728
4 664 665 730 729
4 665 666 731 730
4 666 667 732 731
4 667 668 733 732
4 668 669 734 733
4 669 670 735 734
4 670 671 736 735
4 671 672 737 736
4 672 673 738 737
4 673 674 739 738
4 674 675 740 739
4 675 676 741 740
4 676 677 742 741
4 677 678 743 742
4 678 679 744 743
4 679 680 745 744
4 680 681 746 745
4 681 682 747 746
4 682 683 748 747
4 683 684 749 748
4 684 685 750 749
4 685 686 751 750
4 686 687 752 751
4 687 688 753 752
4 688 689 754 753
4 689 690 755 754
4 690 691 756 755
4 691 692 757 756
4 692 693 758 757
4 693 694 759 758
4 694 695 760 759
4 695 696 761 760
4 696 697 762 761
4 697 698 763 762
4 698 699 764 763
4 699 700 765 764
4 700 701 766 765
4 701 702 767 766
4 702 703 768 767
4 703 704 769 768
4 704 705 770 769
4 705 706 771 770
4 706 707 772 771
4 707 708 773 772
4 708 709 774 773
4 709 710 775 774
4 710 711 776 775
4 711 712 777 776
4 712 713 778 777
4 713 714 779 778
4 715 716 781 780
4 716 717 782 781
4 717 718 783 782
4 718 719 784 783
4 719 720 785 784
4 720 721 786 785
4 721 722 787 786
4 722 723 788 787
4 723 724 789 788
4 724 725 790 789
4 725 726 791 790
4 726 727 792 791
4 727 728 793 792
4 728 729 794 793
4 729 730 795 794
4 730 731 796 795
4 731 732 797 796
4 732 733 798 797
4 733 734 799 798
4 734 735 800 799
4 735 736 801 800
4 736 737 802 801
4 737 738 803 802
4 738 739 804 803
4 739 740 805 804
4 740 741 806 805
4 741 742 807 806
4 742 743 808 807
4 743 744 809 808
4 744 745 810 809
4 745 746 811 810
4 746 747 812 811
4 747 748 813 812
4 748 749 814 813
4 749 750 815 814
4 750 751 816 815
4 751 752 817 816
4 752 753 818 817
4 753 754 819 818
4 754 755 820 819
4 755 756 821 820
4 756 757 822 821
4 757 758 823 822
4 758 759 824 823
4 759 760 825 824
4 760 761 826 825
4 761 762 827 826
4 762 763 828 827
4 763 764 829 828
4 764 765 830 829
4 765 766 831 830
4 766 767 832 831
4 767 768 833 832
4 768 769 834 833
4 769 770 835 834
4 770 771 836 835
4 771 772 837 836
4 772 773 838 837
4 773 774 839 838
4 774 775 840 839
4 775 776 841 840
4 776 777 842 841
4 777 778 843 842
4 778 779 844 843
4 780 781 846 845
4 781 782 847 846
4 782 783 848 847
4 783 784 849 848
4 784 785 850 849
4 785 786 851 850
4 786 787 852 851
4 787 788 853 852
4 788 789 854 853
4 789 790 855 854
4 790 791 856 855
4 791 792 857 856
4 792 793 858 857
4 793 794 859 858
4 794 795 860 859
4 795 796 861 860
4 796 797 862 861
4 797 798 863 862
4 798 799 864 863
4 799 800 865 864
4 800 801 866 865
4 801 802 867 866
4 802 803 868 867
4 803 804 869 868
4 804 805 870 869
4 805 806 871 870
4 806 807 872 871
4 807 808 873 872
4 808 809 874 873
4 809 810 875 874
4 810 811 876 875
4 811 812 877 876
4 812 813 878 877
4 813 814 879 878
4 814 815 880 879
4 815 816 881 880
4 816 817 882 881
4 817 818 883 882
4 818 819 884 883
4 819 820 885 884
4 820 821 886 885
4 821 822 887 886
4 822 823 888 887
4 823 824 889 888
4 824 825 890 889
4 825 826 891 890
4 826 827 892 891
4 827 828 893 892
4 828 829 894 893
4 829 830 895 894
4 830 831 896 895
4 831 832 897 896
4 832 833 898 897
4 833 834 899 898
4 834 835 900 899
4 835 836 901 900
4 836 837 902 901
4 837 838 903 902
4 838 839 904 903
4 839 840 905 904
4 840 841 906 905
4 841 842 907 906
4 842 843 908 907
4 843 844 909 908
4 845 846 911 910
4 846 847 912 911
4 847 848 913 912
4 848 849 914 913
4 849 850 915 914
4 850 851 916 915
4 851 852 917 916
4 852 853 918 917
4 853 854 919 918
4 854 855 920 919
4 855 856 921 920
4 856 857 922 921
4 857 858 923 922
4 858 859 924 923
4 859 860 925 924
4 860 861 926 925
4 861 862 927 926
4 862 863 928 927
4 863 864 929 928
4 864 865 930 929
4 865 866 931 930
4 866 867 932 931
4 867 868 933 932
4 868 869 934 933
4 869 870 935 934
4 870 871 936 935
4 871 872 937 936
4 872 873 938 937
4 873 874 939 938
4 874 875 940 939
4 875 876 941 940
4 876 877 942 941
4 877 878 943 942
4 878 879 944 943
4 879 880 945 944
4 880 881 946 945
4 881 882 947 946
4 882 883 948 947
4 883 884 949 948
4 884 885 950 949
4 885 886 951 950
4 886 887 952 951
4 887 888 953 952
4 888 889 954 953
4 889 890 955 954
4 890 891 956 955
4 891 892 957 956
4 892 893 958 957
4 893 894 959 958
4 894 895 960 959
4 895 896 961 960
4 896 897 962 961
4 897 898 963 962
4 898 899 964 963
4 899 900 965 964
4 900 901 966 965
4 901 902 967 966
4 902 903 968 967
4 903 904 969 968
4 904 905 970 969
4 905 906 971 970
4 906 907 972 971
4 907 908 973 972
4 908 909 974 973
4 910 911 976 975
4 911 912 977 976
4 912 913 978 977
4 913 914 979 978
4 914 915 980 979
4 915 916 981 980
4 916 917 982 981
4 917 918 983 982
4 918 919 984 983
4 919 920 985 984
4 920 921 986 985
4 921 922 987 986
4 922 923 988 987
4 923 924 989 988
4 924 925 990 989
4 925 926 991 990
4 926 927 992 991
4 927 928 993 992
4 928 929 994 993
4 929 930 995 994
4 930 931 996 995
4 931 932 997 996
4 932 933 998 997
4 933 934 999 998
4 934 935 1000 999
4 935 936 1001 1000
4 936 937 1002 1001
4 937 938 1003 1002
4 938 939 1004 1003
4 939 940 1005 1004
4 940 941 1006 1005
4 941 942 1007 1006
4 942 943 1008 1007
4 943 944 1009 1008
4 944 945 1010 1009
4 945 946 1011 1010
4 946 947 1012 1011
4 947 948 1013 1012
4 948 949 1014 1013
4 949 950 1015 1014
4 950 951 1016 1015
4 951 952 1017 1016
4 952 953 1018 1017
4 953 954 1019 1018
4 954 955 1020 1019
4 955 956 1021 1020
4 956 957 1022 1021
4 957 958 1023 1022
4 958 959 1024 1023
4 959 960 1025 1024
4 960 961 1026 1025
4 961 962 1027 1026
4 962 963 1028 1027
4 963 964 1029 1028
4 964 965 1030 1029
4 965 966 1031 1030
4 966 967 1032 1031
4 967 968 1033 1032
4 968 969 1034 1033
4 969 970 1035 1034
4 970 971 1036 1035
4 971 972 1037 1036
4 972 973 1038 1037
4 973 974 1039 1038
4 975 976 1041 1040
4 976 977 1042 1041
4 977 978 1043 1042
4 978 979 1044 1043
4 979 980 1045 1044
4 980 981 1046 1045
4 981 982 1047 1046
4 982 983 1048 1047
4 983 984 1049 1048
4 984 985 1050 1049
4 985 986 1051 1050
4 986 987 1052 1051
4 987 988 1053 1052
4 988 989 1054 1053
4 989 990 1055 1054
4 990 991 1056 1055
4 991 992 1057 1056
4 992 993 1058 1057
4 993 994 1059 1058
4 994 995 1060 1059
4 995 996 1061 1060
4 996 997 1062 1061
4 997 998 1063 1062
4 998 999 1064 1063
4 999 1000 1065 1064
4 1000 1001 1066 1065
4 1001 1002 1067 1066
4 1002 1003 1068 1067
4 1003 1004 1069 1068
4 1004 1005 1070 1069
4 1005 1006 1071 1070
4 1006 1007 1072 1071
4 1007 1008 1073 1072
4 1008 1009 1074 1073
4 1009 1010 1075 1074
4 1010 1011 1076 1075
4 1011 1012 1077 1076
4 1012 1013 1078 1077
4 1013 1014 1079 1078
4 1014 1015 1080 1079
4 1015 1016 1081 1080
4 1016 1017 1082 1081
4 1017 1018 1083 1082
4 1018 1019 1084 1083
4 1019 1020 1085 1084
4 1020 1021 1086 1085
4 1021 1022 1087 1086
4 1022 1023 1088 1087
4 1023 1024 1089 1088
4 1024 1025 1090 1089
4 1025 1026 1091 1090
4 1026 1027 1092 1091
4 1027 1028 1093 1092
4 1028 1029 1094 1093
4 1029 1030 1095 1094
4 1030 1031 1096 1095
4 1031 1032 1097 1096
4 1032 1033 1098 1097
4 1033 1034 1099 1098
4 1034 1035 1100 1099
4 1035 1036 1101 1100
4 1036 1037 1102 1101
4 1037 1038 1103 1102
4 1038 1039 1104 1103
4 1040 1041 1106 1105
4 1041 1042 1107 1106
4 1042 1043 1108 1107
4 1043 1044 1109 1108
4 1044 1045 1110 1109
4 1045 1046 1111 1110
4 1046 1047 1112 1111
4 1047 1048 1113 1112
4 1048 1049 1114 1113
4 1049 1050 1115 1114
4 1050 1051 1116 1115
4 1051 1052 1117 1116
4 1052 1053 1118 1117
4 1053 1054 1119 1118
4 1054 1055 1120 1119
4 1055 1056 1121 1120
4 1056 1057 1122 1121
4 1057 1058 1123 1122
4 1058 1059 1124 1123
4 1059 1060 1125 1124
4 1060 1061 1126 1125
4 1061 1062 1127 1126
4 1062 1063 1128 1127
4 1063 1064 1129 1128
4 1064 1065 1130 1129
4 1065 1066 1131 1130
4 1066 1067 1132 1131
4 1067 1068 1133 1132
4 1068 1069 1134 1133
4 1069 1070 1135 1134
4 1070 1071 1136 1135
4 1071 1072 1137 1136
4 1072 1073 1138 1137
4 1073 1074 1139 1138
4 1074 1075 1140 1139
4 1075 1076 1141 1140
4 1076 1077 1142 1141
4 1077 1078 1143 1142
4 1078 1079 1144 1143
4 1079 1080 1145 1144
4 1080 1081 1146 1145
4 1081 1082 1147 1146
4 1082 1083 1148 1147
4 1083 1084 1149 1148
4 1084 1085 1150 1149
4 1085 1086 1151 1150
4 1086 1087 1152 1151
4 1087 1088 1153 1152
4 1088 1089 1154 1153
4 1089 1090 1155 1154
4 1090 1091 1156 1155
4 1091 1092 1157 1156
4 1092 1093 1158 1157
4 1093 1094 1159 1158
4 1094 1095 1160 1159
4 1095 1096 1161 1160
4 1096 1097 1162 1161
4 1097 1098 1163 1162
4 1098 1099 1164 1163
4 1099 1100 1165 1164
4 1100 1101 1166 1165
4 1101 1102 1167 1166
4 1102 1103 1168 1167
4 1103 1104 1169 1168
4 1105 1106 1171 1170
4 1106 1107 1172 1171
4 1107 1108 1173 1172
4 1108 1109 1174 1173
4 1109 1110 1175 1174
4 1110 1111 1176 1175
4 1111 1112 1177 1176
4 1112 1113 1178 1177
4 1113 1114 1179 1178
4 1114 1115 1180 1179
4 1115 1116 1181 1180
4 1116 1117 1182 1181
4 1117 1118 1183 1182
4 1118 1119 1184 1183
4 1119 1120 1185 1184
4 1120 1121 1186 1185
4 1121 1122 1187 1186
4 1122 1123 1188 1187
4 1123 1124 1189 1188
4 1124 1125 1190 1189
4 1125 1126 1191 1190
4 1126 1127 1192 1191
4 1127 1128 1193 1192
4 1128 1129 1194 1193
4 1129 1130 1195 1194
4 1130 1131 1196 1195
4 1131 1132 1197 1196
4 1132 1133 1198 1197
4 1133 1134 1199 1198
4 1134 1135 1200 1199
4 1135 1136 1201 1200
4 1136 1137 1202 1201
4 1137 1138 1203 1202
4 1138 1139 1204 1203
4 1139 1140 1205 1204
4 1140 1141 1206 1205
4 1141 1142 1207 1206
4 1142 1143 1208 1207
4 1143 1144 1209 1208
4 1144 1145 1210 1209
4 1145 1146 1211 1210
4 1146 1147 1212 1211
4 1147 1148 1213 1212
4 1148 1149 1214 1213
4 1149 1150 1215 1214
4 1150 1151 1216 1215
4 1151 1152 1217 1216
4 1152 1153 1218 1217
4 1153 1154 1219 1218
4 1154 1155 1220 1219
4 1155 1156 1221 1220
4 1156 1157 1222 1221
4 1157 1158 1223 1222
4 1158 1159 1224 1223
4 1159 1160 1225 1224
4 1160 1161 1226 1225
4 1161 1162 1227 1226
4 1162 1163 1228 1227
4 1163 1164 1229 1228
4 1164 1165 1230 1229
4 1165 1166 1231 1230
4 1166 1167 1232 1231
4 1167 1168 1233 1232
4 1168 1169 1234 1233
4 1170 1171 1236 1235
4 1171 1172 1237 1236
4 1172 1173 1238 1237
4 1173 1174 1239 1238
4 1174 1175 1240 1239
4 1175 1176 1241 1240
4 1176 1177 1242 1241
4 1177 1178 1243 1242
4 1178 1179 1244 1243
4 1179 1180 1245 1244
4 1180 1181 1246 1245
4 1181 1182 1247 1246
4 1182 1183 1248 1247
4 1183 1184 1249 1248
4 1184 1185 1250 1249
4 1185 1186 1251 1250
4 1186 1187 1252 1251
4 1187 1188 1253 1252
4 1188 1189 1254 1253
4 1189 1190 1255 1254
4 1190 1191 1256 1255
4 1191 1192 1257 1256
4 1192 1193 1258 1257
4 1193 1194 1259 1258
4 1194 1195 1260 1259
4 1195 1196 1261 1260
4 1196 1197 1262 1261
4 1197 1198 1263 1262
4 1198 1199 1264 1263
4 1199 1200 1265 1264
4 1200 1201 1266 1265
4 1201 1202 1267 1266
4 1202 1203 1268 1267
4 1203 1204 1269 1268
4 1204 1205 1270 1269
4 1205 1206 1271 1270
4 1206 1207 1272 1271
4 1207 1208 1273 1272
4 1208 1209 1274 1273
4 1209 1210 1275 1274
4 1210 1211 1276 1275
4 1211 1212 1277 1276
4 1212 1213 1278 1277
4 1213 1214 1279 1278
4 1214 1215 1280 1279
4 1215 1216 1281 1280
4 1216 1217 1282 1281
4 1217 1218 1283 1282
4 1218 1219 1284 1283
4 1219 1220 1285 1284
4 1220 1221 1286 1285
4 1221 1222 1287 1286
4 1222 1223 1288 1287
4 1223 1224 1289 1288
4 1224 1225 1290 1289
4 1225 1226 1291 1290
4 1226 1227 1292 1291
4 1227 1228 1293 1292
4 1228 1229 1294 1293
4 1229 1230 1295 1294
4 1230 1231 1296 1295
4 1231 1232 1297 1296
4 1232 1233 1298 1297
4 1233 1234 1299 1298
4 1235 1236 1301 1300
4 1236 1237 1302 1301
4 1237 1238 1303 1302
4 1238 1239 1304 1303
4 1239 1240 1305 1304
4 1240 1241 1306 1305
4 1241 1242 1307 1306
4 1242 1243 1308 1307
4 1243 1244 1309 1308
4 1244 1245 1310 1309
4 1245 1246 1311 1310
4 1246 1247 1312 1311
4 1247 1248 1313 1312
4 1248 1249 1314 1313
4 1249 1250 1315 1314
4 1250 1251 1316 1315
4 1251 1252 1317 1316
4 1252 1253 1318 1317
4 1253 1254 1319 1318
4 1254 1255 1320 1319
4 1255 1256 1321 1320
4 1256 1257 1322 1321
4 1257 1258 1323 1322
4 1258 1259 1324 1323
4 1259 1260 1325 1324
4 1260 1261 1326 1325
4 1261 1262 1327 1326
4 1262 1263 1328 1327
4 1263 1264 1329 1328
4 1264 1265 1330 1329
4 1265 1266 1331 1330
4 1266 1267 1332 1331
4 1267 1268 1333 1332
4 1268 1269 1334 1333
4 1269 1270 1335 1334
4 1270 1271 1336 1335
4 1271 1272 1337 1336
4 1272 1273 1338 1337
4 1273 1274 1339 1338
4 1274 1275 1340 1339
4 1275 1276 1341 1340
4 1276 1277 1342 1341
4 1277 1278 1343 1342
4 1278 1279 1344 1343
4 1279 1280 1345 1344
4 1280 1281 1346 1345
4 1281 1282 1347 1346
4 1282 1283 1348 1347
4 1283 1284 1349 1348
4 1284 1285 1350 1349
4 1285 1286 1351 1350
4 1286 1287 1352 1351
4 1287 1288 1353 1352
4 1288 1289 1354 1353
4 1289 1290 1355 1354
4 1290 1291 1356 1355
4 1291 1292 1357 1356
4 1292 1293 1358 1357
4 1293 1294 1359 1358
4 1294 1295 1360 1359
4 1295 1296 1361 1360
4 1296 1297 1362 1361
4 1297 1298 1363 1362
4 1298 1299 1364 1363
4 1300 1301 1366 1365
4 1301 1302 1367 1366
4 1302 1303 1368 1367
4 1303 1304 1369 1368
4 1304 1305 1370 1369
4 1305 1306 1371 1370
4 1306 1307 1372 1371
4 1307 1308 1373 1372
4 1308 1309 1374 1373
4 1309 1310 1375 1374
4 1310 1311 1376 1375
4 1311 1312 1377 1376
4 1312 1313 1378 1377
4 1313 1314 1379 1378
4 1314 1315 1380 1379
4 1315 1316 1381 1380
4 1316 1317 1382 1381
4 1317 1318 1383 1382
4 1318 1319 1384 1383
4 1319 1320 1385 1384
4 1320 1321 1386 1385
4 1321 1322 1387 1386
4 1322 1323 1388 1387
4 1323 1324 1389 1388
4 1324 1325 1390 1389
4 1325 1326 1391 1390
4 1326 1327 1392 1391
4 1327 1328 1393 1392
4 1328 1329 1394 1393
4 1329 1330 1395 1394
4 1330 1331 1396 1395
4 1331 1332 1397 1396
4 1332 1333 1398 1397
4 1333 1334 1399 1398
4 1334 1335 1400 1399
4 1335 1336 1401 1400
4 1336 1337 1402 1401
4 1337 1338 1403 1402
4 1338 1339 1404 1403
4 1339 1340 1405 1404
4 1340 1341 1406 1405
4 1341 1342 1407 1406
4 1342 1343 1408 1407
4 1343 1344 1409 1408
4 1344 1345 1410 1409
4 1345 1346 1411 1410
4 1346 1347 1412 1411
4 1347 1348 1413 1412
4 1348 1349 1414 1413
4 1349 1350 1415 1414
4 1350 1351 1416 1415
4 1351 1352 1417 1416
4 1352 1353 1418 1417
4 1353 1354 1419 1418
4 1354 1355 1420 1419
4 1355 1356 1421 1420
4 1356 1357 1422 1421
4 1357 1358 1423 1422
4 1358 1359 1424 1423
4 1359 1360 1425 1424
4 1360 1361 1426 1425
4 1361 1362 1427 1426
4 1362 1363 1428 1427
4 1363 1364 1429 1428
4 1365 1366 1431 1430
4 1366 1367 1432 1431
4 1367 1368 1433 1432
4 1368 1369 1434 1433
4 1369 1370 1435 1434
4 1370 1371 1436 1435
4 1371 1372 1437 1436
4 1372 1373 1438 1437
4 1373 1374 1439 1438
4 1374 1375 1440 1439
4 1375 1376 1441 1440
4 1376 1377 1442 1441
4 1377 1378 1443 1442
4 1378 1379 1444 1443
4 1379 1380 1445 1444
4 1380 1381 1446 1445
4 1381 1382 1447 1446
4 1382 1383 1448 1447
4 1383 1384 1449 1448
4 1384 1385 1450 1449
4 1385 1386 1451 1450
4 1386 1387 1452 1451
4 1387 1388 1453 1452
4 1388 1389 1454 1453
4 1389 1390 1455 1454
4 1390 1391 1456 1455
4 1391 1392 1457 1456
4 1392 1393 1458 1457
4 1393 1394 1459 1458
4 1394 1395 1460 1459
4 1395 1396 1461 1460
4 1396 1397 1462 1461
4 1397 1398 1463 1462
4 1398 1399 1464 1463
4 1399 1400 1465 1464
4 1400 1401 1466 1465
4 1401 1402 1467 1466
4 1402 1403 1468 1467
4 1403 1404 1469 1468
4 1404 1405 1470 1469
4 1405 1406 1471 1470
4 1406 1407 1472 1471
4 1407 1408 1473 1472
4 1408 1409 1474 1473
4 1409 1410 1475 1474
4 1410 1411 1476 1475
4 1411 1412 1477 1476
4 1412 1413 1478 1477
4 1413 1414 1479 1478
4 1414 1415 1480 1479
4 1415 1416 1481 1480
4 1416 1417 1482 1481
4 1417 1418 1483 1482
4 1418 1419 1484 1483
4 1419 1420 1485 1484
4 1420 1421 1486 1485
4 1421 1422 1487 1486
4 1422 1423 1488 1487
4 1423 1424 1489 1488
4 1424 1425 1490 1489
4 1425 1426 1491 1490
4 1426 1427 1492 1491
4 1427 1428 1493 1492
4 1428 1429 1494 1493
4 1430 1431 1496 1495
4 1431 1432 1497 1496
4 1432 1433 1498 1497
4 1433 1434 1499 1498
4 1434 1435 1500 1499
4 1435 1436 1501 1500
4 1436 1437 1502 1501
4 1437 1438 1503 1502
4 1438 1439 1504 1503
4 1439 1440 1505 1504
4 1440 1441 1506 1505
4 1441 1442 1507 1506
4 1442 1443 1508 1507
4 1443 1444 1509 1508
4 1444 1445 1510 1509
4 1445 1446 1511 1510
4 1446 1447 1512 1511
4 1447 1448 1513 1512
4 1448 1449 1514 1513
4 1449 1450 1515 1514
4 1450 1451 1516 1515
4 1451 1452 1517 1516
4 1452 1453 1518 1517
4 1453 1454 1519 1518
4 1454 1455 1520 1519
4 1455 1456 1521 1520
4 1456 1457 1522 1521
4 1457 1458 1523 1522
4 1458 1459 1524 1523
4 1459 1460 1525 1524
4 1460 1461 1526 1525
4 1461 1462 1527 1526
4 1462 1463 1528 1527
4 1463 1464 1529 1528
4 1464 1465 1530 1529
4 1465 1466 1531 1530
4 1466 1467 1532 1531
4 1467 1468 1533 1532
4 1468 1469 1534 1533
4 1469 1470 1535 1534
4 1470 1471 1536 1535
4 1471 1472 1537 1536
4 1472 1473 1538 1537
4 1473 1474 1539 1538
4 1474 1475 1540 1539
4 1475 1476 1541 1540
4 1476 1477 1542 1541
4 1477 1478 1543 1542
4 1478 1479 1544 1543
4 1479 1480 1545 1544
4 1480 1481 1546 1545
4 1481 1482 1547 1546
4 1482 1483 1548 1547
4 1483 1484 1549 1548
4 1484 1485 1550 1549
4 1485 1486 1551 1550
4 1486 1487 1552 1551
4 1487 1488 1553 1552
4 1488 1489 1554 1553
4 1489 1490 1555 1554
4 1490 1491 1556 1555
4 1491 1492 1557 1556
4 1492 1493 1558 1557
4 1493 1494 1559 1558
4 1495 1496 1561 1560
4 1496 1497 1562 1561
4 1497 1498 1563 1562
4 1498 1499 1564 1563
4 1499 1500 1565 1564
4 1500 1501 1566 1565
4 1501 1502 1567 1566
4 1502 1503 1568 1567
4 1503 1504 1569 1568
4 1504 1505 1570 1569
4 1505 1506 1571 1570
4 1506 1507 1572 1571
4 1507 1508 1573 1572
4 1508 1509 1574 1573
4 1509 1510 1575 1574
4 1510 1511 1576 1575
4 1511 1512 1577 1576
4 1512 1513 1578 1577
4 1513 1514 1579 1578
4 1514 1515 1580 1579
4 1515 1516 1581 1580
4 1516 1517 1582 1581
4 1517 1518 1583 1582
4 1518 1519 1584 1583
4 1519 1520 1585 1584
4 1520 1521 1586 1585
4 1521 1522 1587 1586
4 1522 1523 1588 1587
4 1523 1524 1589 1588
4 1524 1525 1590 1589
4 1525 1526 1591 1590
4 1526 1527 1592 1591
4 1527 1528 1593 1592
4 1528 1529 1594 1593
4 1529 1530 1595 1594
4 1530 1531 1596 1595
4 1531 1532 1597 1596
4 1532 1533 1598 1597
4 1533 1534 1599 1598
4 1534 1535 1600 1599
4 1535 1536 1601 1600
4 1536 1537 1602 1601
4 1537 1538 1603 1602
4 1538 1539 1604 1603
4 1539 1540 1605 1604
4 1540 1541 1606 1605
4 1541 1542 1607 1606
4 1542 1543 1608 1607
4 1543 1544 1609 1608
4 1544 1545 1610 1609
4 1545 1546 1611 1610
4 1546 1547 1612 1611
4 1547 1548 1613 1612
4 1548 1549 1614 1613
4 1549 1550 1615 1614
4 1550 1551 1616 1615
4 1551 1552 1617 1616
4 1552 1553 1618 1617
4 1553 1554 1619 1618
4 1554 1555 1620 1619
4 1555 1556 1621 1620
4 1556 1557 1622 1621
4 1557 1558 1623 1622
4 1558 1559 1624 1623
4 1560 1561 1626 1625
4 1561 1562 1627 1626
4 1562 1563 1628 1627
4 1563 1564 1629 1628
4 1564 1565 1630 1629
4 1565 1566 1631 1630
4 1566 1567 1632 1631
4 1567 1568 1633 1632
4 1568 1569 1634 1633
4 1569 1570 1635 1634
4 1570 1571 1636 1635
4 1571 1572 1637 1636
4 1572 1573 1638 1637
4 1573 1574 1639 1638
4 1574 1575 1640 1639
4 1575 1576 1641 1640
4 1576 1577 1642 1641
4 1577 1578 1643 1642
4 1578 1579 1644 1643
4 1579 1580 1645 1644
4 1580 1581 1646 1645
4 1581 1582 1647 1646
4 1582 1583 1648 1647
4 1583 1584 1649 1648
4 1584 1585 1650 1649
4 1585 1586 1651 1650
4 1586 1587 1652 1651
4 1587 1588 1653 1652
4 1588 1589 1654 1653
4 1589 1590 1655 1654
4 1590 1591 1656 1655
4 1591 1592 1657 1656
4 1592 1593 1658 1657
4 1593 1594 1659 1658
4 1594 1595 1660 1659
4 1595 1596 1661 1660
4 1596 1597 1662 1661
4 1597 1598 1663 1662
4 1598 1599 1664 1663
4 1599 1600 1665 1664
4 1600 1601 1666 1665
4 1601 1602 1667 1666
4 1602 1603 1668 1667
4 1603 1604 1669 1668
4 1604 1605 1670 1669
4 1605 1606 1671 1670
4 1606 1607 1672 1671
4 1607 1608 1673 1672
4 1608 1609 1674 1673
4 1609 1610 1675 1674
4 1610 1611 1676 1675
4 1611 1612 1677 1676
4 1612 1613 1678 1677
4 1613 1614 1679 1678
4 1614 1615 1680 1679
4 1615 1616 1681 1680
4 1616 1617 1682 1681
4 1617 1618 1683 1682
4 1618 1619 1684 1683
4 1619 1620 1685 1684
4 1620 1621 1686 1685
4 1621 1622 1687 1686
4 1622 1623 1688 1687
4 1623 1624 1689 1688
4 1625 1626 1691 1690
4 1626 1627 1692 1691
4 1627 1628 1693 1692
4 1628 1629 1694 1693
4 1629 1630 1695 1694
4 1630 1631 1696 1695
4 1631 1632 1697 1696
4 1632 1633 1698 1697
4 1633 1634 1699 1698
4 1634 1635 1700 1699
4 1635 1636 1701 1700
4 1636 1637 1702 1701
4 1637 1638 1703 1702
4 1638 1639 1704 1703
4 1639 1640 1705 1704
4 1640 1641 1706 1705
4 1641 1642 1707 1706
4 1642 1643 1708 1707
4 1643 1644 1709 1708
4 1644 1645 1710 1709
4 1645 1646 1711 1710
4 1646 1647 1712 1711
4 1647 1648 1713 1712
4 1648 1649 1714 1713
4 1649 1650 1715 1714
4 1650 1651 1716 1715
4 1651 1652 1717 1716
4 1652 1653 1718 1717
4 1653 1654 1719 1718
4 1654 1655 1720 1719
4 1655 1656 1721 1720
4 1656 1657 1722 1721
4 1657 1658 1723 1722
4 1658 1659 1724 1723
4 1659 1660 1725 1724
4 1660 1661 1726 1725
4 1661 1662 1727 1726
4 1662 1663 1728 1727
4 1663 1664 1729 1728
4 1664 1665 1730 1729
4 1665 1666 1731 1730
4 1666 1667 1732 1731
4 1667 1668 1733 1732
4 1668 1669 1734 1733
4 1669 1670 1735 1734
4 1670 1671 1736 1735
4 1671 1672 1737 1736
4 1672 1673 1738 1737
4 1673 1674 1739 1738
4 1674 1675 1740 1739
4 1675 1676 1741 1740
4 1676 1677 1742 1741
4 1677 1678 1743 1742
4 1678 1679 1744 1743
4 1679 1680 1745 1744
4 1680 1681 1746 1745
4 1681 1682 1747 1746
4 1682 1683 1748 1747
4 1683 1684 1749 1748
4 1684 1685 1750 1749
4 1685 1686 1751 1750
4 1686 1687 1752 1751
4 1687 1688 1753 1752
4 1688 1689 1754 1753
4 1690 1691 1756 1755
4 1691 1692 1757 1756
4 1692 1693 1758 1757
4 1693 1694 1759 1758
4 1694 1695 1760 1759
4 1695 1696 1761 1760
4 1696 1697 1762 1761
4 1697 1698 1763 1762
4 1698 1699 1764 1763
4 1699 1700 1765 1764
4 1700 1701 1766 1765
4 1701 1702 1767 1766
4 1702 1703 1768 1767
4 1703 1704 1769 1768
4 1704 1705 1770 1769
4 1705 1706 1771 1770
4 1706 1707 1772 1771
4 1707 1708 1773 1772
4 1708 1709 1774 1773
4 1709 1710 1775 1774
4 1710 1711 1776 1775
4 1711 1712 1777 1776
4 1712 1713 1778 1777
4 1713 1714 1779 1778
4 1714 1715 1780 1779
4 1715 1716 1781 1780
4 1716 1717 1782 1781
4 1717 1718 1783 1782
4 1718 1719 1784 1783
4 1719 1720 1785 1784
4 1720 1721 1786 1785
4 1721 1722 1787 1786
4 1722 1723 1788 1787
4 1723 1724 1789 1788
4 1724 1725 1790 1789
4 1725 1726 1791 1790
4 1726 1727 1792 1791
4 1727 1728 1793 1792
4 1728 1729 1794 1793
4 1729 1730 1795 1794
4 1730 1731 1796 1795
4 1731 1732 1797 1796
4 1732 1733 1798 1797
4 1733 1734 1799 1798
4 1734 1735 1800 1799
4 1735 1736 1801 1800
4 1736 1737 1802 1801
4 1737 1738 1803 1802
4 1738 1739 1804 1803
4 1739 1740 1805 1804
4 1740 1741 1806 1805
4 1741 1742 1807 1806
4 1742 1743 1808 1807
4 1743 1744 1809 1808
4 1744 1745 1810 1809
4 1745 1746 1811 1810
4 1746 1747 1812 1811
4 1747 1748 1813 1812
4 1748 1749 1814 1813
4 1749 1750 1815 1814
4 1750 1751 1816 1815
4 1751 1752 1817 1816
4 1752 1753 1818 1817
4 1753 1754 1819 1818
4 1755 1756 1821 1820
4 1756 1757 1822 1821
4 1757 1758 1823 1822
4 1758 1759 1824 1823
4 1759 1760 1825 1824
4 1760 1761 1826 1825
4 1761 1762 1827 1826
4 1762 1763 1828 1827
4 1763 1764 1829 1828
4 1764 1765 1830 1829
4 1765 1766 1831 1830
4 1766 1767 1832 1831
4 1767 1768 1833 1832
4 1768 1769 1834 1833
4 1769 1770 1835 1834
4 1770 1771 1836 1835
4 1771 1772 1837 1836
4 1772 1773 1838 1837
4 1773 1774 1839 1838
4 1774 1775 1840 1839
4 1775 1776 1841 1840
4 1776 1777 1842 1841
4 1777 1778 1843 1842
4 1778 1779 1844 1843
4 1779 1780 1845 1844
4 1780 1781 1846 1845
4 1781 1782 1847 1846
4 1782 1783 1848 1847
4 1783 1784 1849 1848
4 1784 1785 1850 1849
4 1785 1786 1851 1850
4 1786 1787 1852 1851
4 1787 1788 1853 1852
4 1788 1789 1854 1853
4 1789 1790 1855 1854
4 1790 1791 1856 1855
4 1791 1792 1857 1856
4 1792 1793 1858 1857
4 1793 1794 1859 1858
4 1794 1795 1860 1859
4 1795 1796 1861 1860
4 1796 1797 1862 1861
4 1797 1798 1863 1862
4 1798 1799 1864 1863
4 1799 1800 1865 1864
4 1800 1801 1866 1865
4 1801 1802 1867 1866
4 1802 1803 1868 1867
4 1803 1804 1869 1868
4 1804 1805 1870 1869
4 1805 1806 1871 1870
4 1806 1807 1872 1871
4 1807 1808 1873 1872
4 1808 1809 1874 1873
4 1809 1810 1875 1874
4 1810 1811 1876 1875
4 1811 1812 1877 1876
4 1812 1813 1878 1877
4 1813 1814 1879 1878
4 1814 1815 1880 1879
4 1815 1816 1881 1880
4 1816 1817 1882 1881
4 1817 1818 1883 1882
4 1818 1819 1884 1883
4 1820 1821 1886 1885
4 1821 1822 1887 1886
4 1822 1823 1888 1887
4 1823 1824 1889 1888
4 1824 1825 1890 1889
4 1825 1826 1891 1890
4 1826 1827 1892 1891
4 1827 1828 1893 1892
4 1828 1829 1894 1893
4 1829 1830 1895 1894
4 1830 1831 1896 1895
4 1831 1832 1897 1896
4 1832 1833 1898 1897
4 1833 1834 1899 1898
4 1834 1835 1900 1899
4 1835 1836 1901 1900
4 1836 1837 1902 1901
4 1837 1838 1903 1902
4 1838 1839 1904 1903
4 1839 1840 1905 1904
4 1840 1841 1906 1905
4 1841 1842 1907 1906
4 1842 1843 1908 1907
4 1843 1844 1909 1908
4 1844 1845 1910 1909
4 1845 1846 1911 1910
4 1846 1847 1912 1911
4 1847 1848 1913 1912
4 1848 1849 1914 1913
4 1849 1850 1915 1914
4 1850 1851 1916 1915
4 1851 1852 1917 1916
4 1852 1853 1918 1917
4 1853 1854 1919 1918
4 1854 1855 1920 1919
4 1855 1856 1921 1920
4 1856 1857 1922 1921
4 1857 1858 1923 1922
4 1858 1859 1924 1923
4 1859 1860 1925 1924
4 1860 1861 1926 1925
4 1861 1862 1927 1926
4 1862 1863 1928 1927
4 1863 1864 1929 1928
4 1864 1865 1930 1929
4 1865 1866 1931 1930
4 1866 1867 1932 1931
4 1867 1868 1933 1932
4 1868 1869 1934 1933
4 1869 1870 1935 1934
4 1870 1871 1936 1935
4 1871 1872 1937 1936
4 1872 1873 1938 1937
4 1873 1874 1939 1938
4 1874 1875 1940 1939
4 1875 1876 1941 1940
4 1876 1877 1942 1941
4 1877 1878 1943 1942
4 1878 1879 1944 1943
4 1879 1880 1945 1944
4 1880 1881 1946 1945
4 1881 1882 1947 1946
4 1882 1883 1948 1947
4 1883 1884 1949 1948
4 1885 1886 1951 1950
4 1886 1887 1952 1951
4 1887 1888 1953 1952
4 1888 1889 1954 1953
4 1889 1890 1955 1954
4 1890 1891 1956 1955
4 1891 1892 1957 1956
4 1892 1893 1958 1957
4 1893 1894 1959 1958
4 1894 1895 1960 1959
4 1895 1896 1961 1960
4 1896 1897 1962 1961
4 1897 1898 1963 1962
4 1898 1899 1964 1963
4 1899 1900 1965 1964
4 1900 1901 1966 1965
4 1901 1902 1967 1966
4 1902 1903 1968 1967
4 1903 1904 1969 1968
4 1904 1905 1970 1969
4 1905 1906 1971 1970
4 1906 1907 1972 1971
4 1907 1908 1973 1972
4 1908 1909 1974 1973
4 1909 1910 1975 1974
4 1910 1911 1976 1975
4 1911 1912 1977 1976
4 1912 1913 1978 1977
4 1913 1914 1979 1978
4 1914 1915 1980 1979
4 1915 1916 1981 1980
4 1916 1917 1982 1981
4 1917 1918 1983 1982
4 1918 1919 1984 1983
4 1919 1920 1985 1984
4 1920 1921 1986 1985
4 1921 1922 1987 1986
4 1922 1923 1988 1987
4 1923 1924 1989 1988
4 1924 1925 1990 1989
4 1925 1926 1991 1990
4 1926 1927 1992 1991
4 1927 1928 1993 1992
4 1928 1929 1994 1993
4 1929 1930 1995 1994
4 1930 1931 1996 1995
4 1931 1932 1997 1996
4 1932 1933 1998 1997
4 1933 1934 1999 1998
4 1934 1935 2000 1999
4 1935 1936 2001 2000
4 1936 1937 2002 2001
4 1937 1938 2003 2002
4 1938 1939 2004 2003
4 1939 1940 2005 2004
4 1940 1941 2006 2005
4 1941 1942 2007 2006
4 1942 1943 2008 2007
4 1943 1944 2009 2008
4 1944 1945 2010 2009
4 1945 1946 2011 2010
4 1946 1947 2012 2011
4 1947 1948 2013 2012
4 1948 1949 2014 2013
4 1950 1951 2016 2015
4 1951 1952 2017 2016
4 1952 1953 2018 2017
4 1953 1954 2019 2018
4 1954 1955 2020 2019
4 1955 1956 2021 2020
4 1956 1957 2022 2021
4 1957 1958 2023 2022
4 1958 1959 2024 2023
4 1959 1960 2025 2024
4 1960 1961 2026 2025
4 1961 1962 2027 2026
4 1962 1963 2028 2027
4 1963 1964 2029 2028
4 1964 1965 2030 2029
4 1965 1966 2031 2030
4 1966 1967 2032 2031
4 1967 1968 2033 2032
4 1968 1969 2034 2033
4 1969 1970 2035 2034
4 1970 1971 2036 2035
4 1971 1972 2037 2036
4 1972 1973 2038 2037
4 1973 1974 2039 2038
4 1974 1975 2040 2039
4 1975 1976 2041 2040
4 1976 1977 2042 2041
4 1977 1978 2043 2042
4 1978 1979 2044 2043
4 1979 1980 2045 2044
4 1980 1981 2046 2045
4 1981 1982 2047 2046
4 1982 1983 2048 2047
4 1983 1984 2049 2048
4 1984 1985 2050 2049
4 1985 1986 2051 2050
4 1986 1987 2052 2051
4 1987 1988 2053 2052
4 1988 1989 2054 2053
4 1989 1990 2055 2054
4 1990 1991 2056 2055
4 1991 1992 2057 2056
4 1992 1993 2058 2057
4 1993 1994 2059 2058
4 1994 1995 2060 2059
4 1995 1996 2061 2060
4 1996 1997 2062 2061
4 1997 1998 2063 2062
4 1998 1999 2064 2063
4 1999 2000 2065 2064
4 2000 2001 2066 2065
4 2001 2002 2067 2066
4 2002 2003 2068 2067
4 2003 2004 2069 2068
4 2004 2005 2070 2069
4 2005 2006 2071 2070
4 2006 2007 2072 2071
4 2007 2008 2073 2072
4 2008 2009 2074 2073
4 2009 2010 2075 2074
4 2010 2011 2076 2075
4 2011 2012 2077 2076
4 2012 2013 2078 2077
4 2013 2014 2079 2078
4 2015 2016 2081 2080
4 2016 2017 2082 2081
4 2017 2018 2083 2082
4 2018 2019 2084 2083
4 2019 2020 2085 2084
4 2020 2021 2086 2085
4 2021 2022 2087 2086
4 2022 2023 2088 2087
4 2023 2024 2089 2088
4 2024 2025 2090 2089
4 2025 2026 2091 2090
4 2026 2027 2092 2091
4 2027 2028 2093 2092
4 2028 2029 2094 2093
4 2029 2030 2095 2094
4 2030 2031 2096 2095
4 2031 2032 2097 2096
4 2032 2033 2098 2097
4 2033 2034 2099 2098
4 2034 2035 2100 2099
4 2035 2036 2101 2100
4 2036 2037 2102 2101
4 2037 2038 2103 2102
4 2038 2039 2104 2103
4 2039 2040 2105 2104
4 2040 2041 2106 2105
4 2041 2042 2107 2106
4 2042 2043 2108 2107
4 2043 2044 2109 2108
4 2044 2045 2110 2109
4 2045 2046 2111 2110
4 2046 2047 2112 2111
4 2047 2048 2113 2112
4 2048 2049 2114 2113
4 2049 2050 2115 2114
4 2050 2051 2116 2115
4 2051 2052 2117 2116
4 2052 2053 2118 2117
4 2053 2054 2119 2118
4 2054 2055 2120 2119
4 2055 2056 2121 2120
4 2056 2057 2122 2121
4 2057 2058 2123 2122
4 2058 2059 2124 2123
4 2059 2060 2125 2124
4 2060 2061 2126 2125
4 2061 2062 2127 2126
4 2062 2063 2128 2127
4 2063 2064 2129 2128
4 2064 2065 2130 2129
4 2065 2066 2131 2130
4 2066 2067 2132 2131
4 2067 2068 2133 2132
4 2068 2069 2134 2133
4 2069 2070 2135 2134
4 2070 2071 2136 2135
4 2071 2072 2137 2136
4 2072 2073 2138 2137
4 2073 2074 2139 2138
4 2074 2075 2140 2139
4 2075 2076 2141 2140
4 2076 2077 2142 2141
4 2077 2078 2143 2142
4 2078 2079 2144 2143
4 2080 2081 2146 2145
4 2081 2082 2147 2146
4 2082 2083 2148 2147
4 2083 2084 2149 2148
4 2084 2085 2150 2149
4 2085 2086 2151 2150
4 2086 2087 2152 2151
4 2087 2088 2153 2152
4 2088 2089 2154 2153
4 2089 2090 2155 2154
4 2090 2091 2156 2155
4 2091 2092 2157 2156
4 2092 2093 2158 2157
4 2093 2094 2159 2158
4 2094 2095 2160 2159
4 2095 2096 2161 2160
4 2096 2097 2162 2161
4 2097 2098 2163 2162
4 2098 2099 2164 2163
4 2099 2100 2165 2164
4 2100 2101 2166 2165
4 2101 2102 2167 2166
4 2102 2103 2168 2167
4 2103 2104 2169 2168
4 2104 2105 2170 2169
4 2105 2106 2171 2170
4 2106 2107 2172 2171
4 2107 2108 2173 2172
4 2108 2109 2174 2173
4 2109 2110 2175 2174
4 2110 2111 2176 2175
4 2111 2112 2177 2176
4 2112 2113 2178 2177
4 2113 2114 2179 2178
4 2114 2115 2180 2179
4 2115 2116 2181 2180
4 2116 2117 2182 2181
4 2117 2118 2183 2182
4 2118 2119 2184 2183
4 2119 2120 2185 2184
4 2120 2121 2186 2185
4 2121 2122 2187 2186
4 2122 2123 2188 2187
4 2123 2124 2189 2188
4 2124 2125 2190 2189
4 2125 2126 2191 2190
4 2126 2127 2192 2191
4 2127 2128 2193 2192
4 2128 2129 2194 2193
4 2129 2130 2195 2194
4 2130 2131 2196 2195
4 2131 2132 2197 2196
4 2132 2133 2198 2197
4 2133 2134 2199 2198
4 2134 2135 2200 2199
4 2135 2136 2201 2200
4 2136 2137 2202 2201
4 2137 2138 2203 2202
4 2138 2139 2204 2203
4 2139 2140 2205 2204
4 2140 2141 2206 2205
4 2141 2142 2207 2206
4 2142 2143 2208 2207
4 2143 2144 2209 2208
4 2145 2146 2211 2210
4 2146 2147 2212 2211
4 2147 2148 2213 2212
4 2148 2149 2214 2213
4 2149 2150 2215 2214
4 2150 2151 2216 2215
4 2151 2152 2217 2216
4 2152 2153 2218 2217
4 2153 2154 2219 2218
4 2154 2155 2220 2219
4 2155 2156 2221 2220
4 2156 2157 2222 2221
4 2157 2158 2223 2222
4 2158 2159 2224 2223
4 2159 2160 2225 2224
4 2160 2161 2226 2225
4 2161 2162 2227 2226
4 2162 2163 2228 2227
4 2163 2164 2229 2228
4 2164 2165 2230 2229
4 2165 2166 2231 2230
4 2166 2167 2232 2231
4 2167 2168 2233 2232
4 2168 2169 2234 2233
4 2169 2170 2235 2234
4 2170 2171 2236 2235
4 2171 2172 2237 2236
4 2172 2173 2238 2237
4 2173 2174 2239 2238
4 2174 2175 2240 2239
4 2175 2176 2241 2240
4 2176 2177 2242 2241
4 2177 2178 2243 2242
4 2178 2179 2244 2243
4 2179 2180 2245 2244
4 2180 2181 2246 2245
4 2181 2182 2247 2246
4 2182 2183 2248 2247
4 2183 2184 2249 2248
4 2184 2185 2250 2249
4 2185 2186 2251 2250
4 2186 2187 2252 2251
4 2187 2188 2253 2252
4 2188 2189 2254 2253
4 2189 2190 2255 2254
4 2190 2191 2256 2255
4 2191 2192 2257 2256
4 2192 2193 2258 2257
4 2193 2194 2259 2258
4 2194 2195 2260 2259
4 2195 2196 2261 2260
4 2196 2197 2262 2261
4 2197 2198 2263 2262
4 2198 2199 2264 2263
4 2199 2200 2265 2264
4 2200 2201 2266 2265
4 2201 2202 2267 2266
4 2202 2203 2268 2267
4 2203 2204 2269 2268
4 2204 2205 2270 2269
4 2205 2206 2271 2270
4 2206 2207 2272 2271
4 2207 2208 2273 2272
4 2208 2209 2274 2273
4 2210 2211 2276 2275
4 2211 2212 2277 2276
4 2212 2213 2278 2277
4 2213 2214 2279 2278
4 2214 2215 2280 2279
4 2215 2216 2281 2280
4 2216 2217 2282 2281
4 2217 2218 2283 2282
4 2218 2219 2284 2283
4 2219 2220 2285 2284
4 2220 2221 2286 2285
4 2221 2222 2287 2286
4 2222 2223 2288 2287
4 2223 2224 2289 2288
4 2224 2225 2290 2289
4 2225 2226 2291 2290
4 2226 2227 2292 2291
4 2227 2228 2293 2292
4 2228 2229 2294 2293
4 2229 2230 2295 2294
4 2230 2231 2296 2295
4 2231 2232 2297 2296
4 2232 2233 2298 2297
4 2233 2234 2299 2298
4 2234 2235 2300 2299
4 2235 2236 2301 2300
4 2236 2237 2302 2301
4 2237 2238 2303 2302
4 2238 2239 2304 2303
4 2239 2240 2305 2304
4 2240 2241 2306 2305
4 2241 2242 2307 2306
4 2242 2243 2308 2307
4 2243 2244 2309 2308
4 2244 2245 2310 2309
4 2245 2246 2311 2310
4 2246 2247 2312 2311
4 2247 2248 2313 2312
4 2248 2249 2314 2313
4 2249 2250 2315 2314
4 2250 2251 2316 2315
4 2251 2252 2317 2316
4 2252 2253 2318 2317
4 2253 2254 2319 2318
4 2254 2255 2320 2319
4 2255 2256 2321 2320
4 2256 2257 2322 2321
4 2257 2258 2323 2322
4 2258 2259 2324 2323
4 2259 2260 2325 2324
4 2260 2261 2326 2325
4 2261 2262 2327 2326
4 2262 2263 2328 2327
4 2263 2264 2329 2328
4 2264 2265 2330 2329
4 2265 2266 2331 2330
4 2266 2267 2332 2331
4 2267 2268 2333 2332
4 2268 2269 2334 2333
4 2269 2270 2335 2334
4 2270 2271 2336 2335
4 2271 2272 2337 2336
4 2272 2273 2338 2337
4 2273 2274 2339 2338
4 2275 2276 2341 2340
4 2276 2277 2342 2341
4 2277 2278 2343 2342
4 2278 2279 2344 2343
4 2279 2280 2345 2344
4 2280 2281 2346 2345
4 2281 2282 2347 2346
4 2282 2283 2348 2347
4 2283 2284 2349 2348
4 2284 2285 2350 2349
4 2285 2286 2351 2350
4 2286 2287 2352 2351
4 2287 2288 2353 2352
4 2288 2289 2354 2353
4 2289 2290 2355 2354
4 2290 2291 2356 2355
4 2291 2292 2357 2356
4 2292 2293 2358 2357
4 2293 2294 2359 2358
4 2294 2295 2360 2359
4 2295 2296 2361 2360
4 2296 2297 2362 2361
4 2297 2298 2363 2362
4 2298 2299 2364 2363
4 2299 2300 2365 2364
4 2300 2301 2366 2365
4 2301 2302 2367 2366
4 2302 2303 2368 2367
4 2303 2304 2369 2368
4 2304 2305 2370 2369
4 2305 2306 2371 2370
4 2306 2307 2372 2371
4 2307 2308 2373 2372
4 2308 2309 2374 2373
4 2309 2310 2375 2374
4 2310 2311 2376 2375
4 2311 2312 2377 2376
4 2312 2313 2378 2377
4 2313 2314 2379 2378
4 2314 2315 2380 2379
4 2315 2316 2381 2380
4 2316 2317 2382 2381
4 2317 2318 2383 2382
4 2318 2319 2384 2383
4 2319 2320 2385 2384
4 2320 2321 2386 2385
4 2321 2322 2387 2386
4 2322 2323 2388 2387
4 2323 2324 2389 2388
4 2324 2325 2390 2389
4 2325 2326 2391 2390
4 2326 2327 2392 2391
4 2327 2328 2393 2392
4 2328 2329 2394 2393
4 2329 2330 2395 2394
4 2330 2331 2396 2395
4 2331 2332 2397 2396
4 2332 2333 2398 2397
4 2333 2334 2399 2398
4 2334 2335 2400 2399
4 2335 2336 2401 2400
4 2336 2337 2402 2401
4 2337 2338 2403 2402
4 2338 2339 2404 2403
4 2340 2341 2406 2405
4 2341 2342 2407 2406
4 2342 2343 2408 2407
4 2343 2344 2409 2408
4 2344 2345 2410 2409
4 2345 2346 2411 2410
4 2346 2347 2412 2411
4 2347 2348 2413 2412
4 2348 2349 2414 2413
4 2349 2350 2415 2414
4 2350 2351 2416 2415
4 2351 2352 2417 2416
4 2352 2353 2418 2417
4 2353 2354 2419 2418
4 2354 2355 2420 2419
4 2355 2356 2421 2420
4 2356 2357 2422 2421
4 2357 2358 2423 2422
4 2358 2359 2424 2423
4 2359 2360 2425 2424
4 2360 2361 2426 2425
4 2361 2362 2427 2426
4 2362 2363 2428 2427
4 2363 2364 2429 2428
4 2364 2365 2430 2429
4 2365 2366 2431 2430
4 2366 2367 2432 2431
4 2367 2368 2433 2432
4 2368 2369 2434 2433
4 2369 2370 2435 2434
4 2370 2371 2436 2435
4 2371 2372 2437 2436
4 2372 2373 2438 2437
4 2373 2374 2439 2438
4 2374 2375 2440 2439
4 2375 2376 2441 2440
4 2376 2377 2442 2441
4 2377 2378 2443 2442
4 2378 2379 2444 2443
4 2379 2380 2445 2444
4 2380 2381 2446 2445
4 2381 2382 2447 2446
4 2382 2383 2448 2447
4 2383 2384 2449 2448
4 2384 2385 2450 2449
4 2385 2386 2451 2450
4 2386 2387 2452 2451
4 2387 2388 2453 2452
4 2388 2389 2454 2453
4 2389 2390 2455 2454
4 2390 2391 2456 2455
4 2391 2392 2457 2456
4 2392 2393 2458 2457
4 2393 2394 2459 2458
4 2394 2395 2460 2459
4 2395 2396 2461 2460
4 2396 2397 2462 2461
4 2397 2398 2463 2462
4 2398 2399 2464 2463
4 2399 2400 2465 2464
4 2400 2401 2466 2465
4 2401 2402 2467 2466
4 2402 2403 2468 2467
4 2403 2404 2469 2468
4 2405 2406 2471 2470
4 2406 2407 2472 2471
4 2407 2408 2473 2472
4 2408 2409 2474 2473
4 2409 2410 2475 2474
4 2410 2411 2476 2475
4 2411 2412 2477 2476
4 2412 2413 2478 2477
4 2413 2414 2479 2478
4 2414 2415 2480 2479
4 2415 2416 2481 2480
4 2416 2417 2482 2481
4 2417 2418 2483 2482
4 2418 2419 2484 2483
4 2419 2420 2485 2484
4 2420 2421 2486 2485
4 2421 2422 2487 2486
4 2422 2423 2488 2487
4 2423 2424 2489 2488
4 2424 2425 2490 2489
4 2425 2426 2491 2490
4 2426 2427 2492 2491
4 2427 2428 2493 2492
4 2428 2429 2494 2493
4 2429 2430 2495 2494
4 2430 2431 2496 2495
4 2431 2432 2497 2496
4 2432 2433 2498 2497
4 2433 2434 2499 2498
4 2434 2435 2500 2499
4 2435 2436 2501 2500
4 2436 2437 2502 2501
4 2437 2438 2503 2502
4 2438 2439 2504 2503
4 2439 2440 2505 2504
4 2440 2441 2506 2505
4 2441 2442 2507 2506
4 2442 2443 2508 2507
4 2443 2444 2509 2508
4 2444 2445 2510 2509
4 2445 2446 2511 2510
4 2446 2447 2512 2511
4 2447 2448 2513 2512
4 2448 2449 2514 2513
4 2449 2450 2515 2514
4 2450 2451 2516 2515
4 2451 2452 2517 2516
4 2452 2453 2518 2517
4 2453 2454 2519 2518
4 2454 2455 2520 2519
4 2455 2456 2521 2520
4 2456 2457 2522 2521
4 2457 2458 2523 2522
4 2458 2459 2524 2523
4 2459 2460 2525 2524
4 2460 2461 2526 2525
4 2461 2462 2527 2526
4 2462 2463 2528 2527
4 2463 2464 2529 2528
4 2464 2465 2530 2529
4 2465 2466 2531 2530
4 2466 2467 2532 2531
4 2467 2468 2533 2532
4 2468 2469 2534 2533
4 2470 2471 2536 2535
4 2471 2472 2537 2536
4 2472 2473 2538 2537
4 2473 2474 2539 2538
4 2474 2475 2540 2539
4 2475 2476 2541 2540
4 2476 2477 2542 2541
4 2477 2478 2543 2542
4 2478 2479 2544 2543
4 2479 2480 2545 2544
4 2480 2481 2546 2545
4 2481 2482 2547 2546
4 2482 2483 2548 2547
4 2483 2484 2549 2548
4 2484 2485 2550 2549
4 2485 2486 2551 2550
4 2486 2487 2552 2551
4 2487 2488 2553 2552
4 2488 2489 2554 2553
4 2489 2490 2555 2554
4 2490 2491 2556 2555
4 2491 2492 2557 2556
4 2492 2493 2558 2557
4 2493 2494 2559 2558
4 2494 2495 2560 2559
4 2495 2496 2561 2560
4 2496 2497 2562 2561
4 2497 2498 2563 2562
4 2498 2499 2564 2563
4 2499 2500 2565 2564
4 2500 2501 2566 2565
4 2501 2502 2567 2566
4 2502 2503 2568 2567
4 2503 2504 2569 2568
4 2504 2505 2570 2569
4 2505 2506 2571 2570
4 2506 2507 2572 2571
4 2507 2508 2573 2572
4 2508 2509 2574 2573
4 2509 2510 2575 2574
4 2510 2511 2576 2575
4 2511 2512 2577 2576
4 2512 2513 2578 2577
4 2513 2514 2579 2578
4 2514 2515 2580 2579
4 2515 2516 2581 2580
4 2516 2517 2582 2581
4 2517 2518 2583 2582
4 2518 2519 2584 2583
4 2519 2520 2585 2584
4 2520 2521 2586 2585
4 2521 2522 2587 2586
4 2522 2523 2588 2587
4 2523 2524 2589 2588
4 2524 2525 2590 2589
4 2525 2526 2591 2590
4 2526 2527 2592 2591
4 2527 2528 2593 2592
4 2528 2529 2594 2593
4 2529 2530 2595 2594
4 2530 2531 2596 2595
4 2531 2532 2597 2596
4 2532 2533 2598 2597
4 2533 2534 2599 2598
4 2535 2536 2601 2600
4 2536 2537 2602 2601
4 2537 2538 2603 2602
4 2538 2539 2604 2603
4 2539 2540 2605 2604
4 2540 2541 2606 2605
4 2541 2542 2607 2606
4 2542 2543 2608 2607
4 2543 2544 2609 2608
4 2544 2545 2610 2609
4 2545 2546 2611 2610
4 2546 2547 2612 2611
4 2547 2548 2613 2612
4 2548 2549 2614 2613
4 2549 2550 2615 2614
4 2550 2551 2616 2615
4 2551 2552 2617 2616
4 2552 2553 2618 2617
4 2553 2554 2619 2618
4 2554 2555 2620 2619
4 2555 2556 2621 2620
4 2556 2557 2622 2621
4 2557 2558 2623 2622
4 2558 2559 2624 2623
4 2559 2560 2625 2624
4 2560 2561 2626 2625
4 2561 2562 2627 2626
4 2562 2563 2628 2627
4 2563 2564 2629 2628
4 2564 2565 2630 2629
4 2565 2566 2631 2630
4 2566 2567 2632 2631
4 2567 2568 2633 2632
4 2568 2569 2634 2633
4 2569 2570 2635 2634
4 2570 2571 2636 2635
4 2571 2572 2637 2636
4 2572 2573 2638 2637
4 2573 2574 2639 2638
4 2574 2575 2640 2639
4 2575 2576 2641 2640
4 2576 2577 2642 2641
4 2577 2578 2643 2642
4 2578 2579 2644 2643
4 2579 2580 2645 2644
4 2580 2581 2646 2645
4 2581 2582 2647 2646
4 2582 2583 2648 2647
4 2583 2584 2649 2648
4 2584 2585 2650 2649
4 2585 2586 2651 2650
4 2586 2587 2652 2651
4 2587 2588 2653 2652
4 2588 2589 2654 2653
4 2589 2590 2655 2654
4 2590 2591 2656 2655
4 2591 2592 2657 2656
4 2592 2593 2658 2657
4 2593 2594 2659 2658
4 2594 2595 2660 2659
4 2595 2596 2661 2660
4 2596 2597 2662 2661
4 2597 2598 2663 2662
4 2598 2599 2664 2663
4 2600 2601 2666 2665
4 2601 2602 2667 2666
4 2602 2603 2668 2667
4 2603 2604 2669 2668
4 2604 2605 2670 2669
4 2605 2606 2671 2670
4 2606 2607 2672 2671
4 2607 2608 2673 2672
4 2608 2609 2674 2673
4 2609 2610 2675 2674
4 2610 2611 2676 2675
4 2611 2612 2677 2676
4 2612 2613 2678 2677
4 2613 2614 2679 2678
4 2614 2615 2680 2679
4 2615 2616 2681 2680
4 2616 2617 2682 2681
4 2617 2618 2683 2682
4 2618 2619 2684 2683
4 2619 2620 2685 2684
4 2620 2621 2686 2685
4 2621 2622 2687 2686
4 2622 2623 2688 2687
4 2623 2624 2689 2688
4 2624 2625 2690 2689
4 2625 2626 2691 2690
4 2626 2627 2692 2691
4 2627 2628 2693 2692
4 2628 2629 2694 2693
4 2629 2630 2695 2694
4 2630 2631 2696 2695
4 2631 2632 2697 2696
4 2632 2633 2698 2697
4 2633 2634 2699 2698
4 2634 2635 2700 2699
4 2635 2636 2701 2700
4 2636 2637 2702 2701
4 2637 2638 2703 2702
4 2638 2639 2704 2703
4 2639 2640 2705 2704
4 2640 2641 2706 2705
4 2641 2642 2707 2706
4 2642 2643 2708 2707
4 2643 2644 2709 2708
4 2644 2645 2710 2709
4 2645 2646 2711 2710
4 2646 2647 2712 2711
4 2647 2648 2713 2712
4 2648 2649 2714 2713
4 2649 2650 2715 2714
4 2650 2651 2716 2715
4 2651 2652 2717 2716
4 2652 2653 2718 2717
4 2653 2654 2719 2718
4 2654 2655 2720 2719
4 2655 2656 2721 2720
4 2656 2657 2722 2721
4 2657 2658 2723 2722
4 2658 2659 2724 2723
4 2659 2660 2725 2724
4 2660 2661 2726 2725
4 2661 2662 2727 2726
4 2662 2663 2728 2727
4 2663 2664 2729 2728
4 2665 2666 2731 2730
4 2666 2667 2732 2731
4 2667 2668 2733 2732
4 2668 2669 2734 2733
4 2669 2670 2735 2734
4 2670 2671 2736 2735
4 2671 2672 2737 2736
4 2672 2673 2738 2737
4 2673 2674 2739 2738
4 2674 2675 2740 2739
4 2675 2676 2741 2740
4 2676 2677 2742 2741
4 2677 2678 2743 2742
4 2678 2679 2744 2743
4 2679 2680 2745 2744
4 2680 2681 2746 2745
4 2681 2682 2747 2746
4 2682 2683 2748 2747
4 2683 2684 2749 2748
4 2684 2685 2750 2749
4 2685 2686 2751 2750
4 2686 2687 2752 2751
4 2687 2688 2753 2752
4 2688 2689 2754 2753
4 2689 2690 2755 2754
4 2690 2691 2756 2755
4 2691 2692 2757 2756
4 2692 2693 2758 2757
4 2693 2694 2759 2758
4 2694 2695 2760 2759
4 2695 2696 2761 2760
4 2696 2697 2762 2761
4 2697 2698 2763 2762
4 2698 2699 2764 2763
4 2699 2700 2765 2764
4 2700 2701 2766 2765
4 2701 2702 2767 2766
4 2702 2703 2768 2767
4 2703 2704 2769 2768
4 2704 2705 2770 2769
4 2705 2706 2771 2770
4 2706 2707 2772 2771
4 2707 2708 2773 2772
4 2708 2709 2774 2773
4 2709 2710 2775 2774
4 2710 2711 2776 2775
4 2711 2712 2777 2776
4 2712 2713 2778 2777
4 2713 2714 2779 2778
4 2714 2715 2780 2779
4 2715 2716 2781 2780
4 2716 2717 2782 2781
4 2717 2718 2783 2782
4 2718 2719 2784 2783
4 2719 2720 2785 2784
4 2720 2721 2786 2785
4 2721 2722 2787 2786
4 2722 2723 2788 2787
4 2723 2724 2789 2788
4 2724 2725 2790 2789
4 2725 2726 2791 2790
4 2726 2727 2792 2791
4 2727 2728 2793 2792
4 2728 2729 2794 2793
4 2730 2731 2796 2795
4 2731 2732 2797 2796
4 2732 2733 2798 2797
4 2733 2734 2799 2798
4 2734 2735 2800 2799
4 2735 2736 2801 2800
4 2736 2737 2802 2801
4 2737 2738 2803 2802
4 2738 2739 2804 2803
4 2739 2740 2805 2804
4 2740 2741 2806 2805
4 2741 2742 2807 2806
4 2742 2743 2808 2807
4 2743 2744 2809 2808
4 2744 2745 2810 2809
4 2745 2746 2811 2810
4 2746 2747 2812 2811
4 2747 2748 2813 2812
4 2748 2749 2814 2813
4 2749 2750 2815 2814
4 2750 2751 2816 2815
4 2751 2752 2817 2816
4 2752 2753 2818 2817
4 2753 2754 2819 2818
4 2754 2755 2820 2819
4 2755 2756 2821 2820
4 2756 2757 2822 2821
4 2757 2758 2823 2822
4 2758 2759 2824 2823
4 2759 2760 2825 2824
4 2760 2761 2826 2825
4 2761 2762 2827 2826
4 2762 2763 2828 2827
4 2763 2764 2829 2828
4 2764 2765 2830 2829
4 2765 2766 2831 2830
4 2766 2767 2832 2831
4 2767 2768 2833 2832
4 2768 2769 2834 2833
4 2769 2770 2835 2834
4 2770 2771 2836 2835
4 2771 2772 2837 2836
4 2772 2773 2838 2837
4 2773 2774 2839 2838
4 2774 2775 2840 2839
4 2775 2776 2841 2840
4 2776 2777 2842 2841
4 2777 2778 2843 2842
4 2778 2779 2844 2843
4 2779 2780 2845 2844
4 2780 2781 2846 2845
4 2781 2782 2847 2846
4 2782 2783 2848 2847
4 2783 2784 2849 2848
4 2784 2785 2850 2849
4 2785 2786 2851 2850
4 2786 2787 2852 2851
4 2787 2788 2853 2852
4 2788 2789 2854 2853
4 2789 2790 2855 2854
4 2790 2791 2856 2855
4 2791 2792 2857 2856
4 2792 2793 2858 2857
4 2793 2794 2859 2858
4 2795 2796 2861 2860
4 2796 2797 2862 2861
4 2797 2798 2863 2862
4 2798 2799 2864 2863
4 2799 2800 2865 2864
4 2800 2801 2866 2865
4 2801 2802 2867 2866
4 2802 2803 2868 2867
4 2803 2804 2869 2868
4 2804 2805 2870 2869
4 2805 2806 2871 2870
4 2806 2807 2872 2871
4 2807 2808 2873 2872
4 2808 2809 2874 2873
4 2809 2810 2875 2874
4 2810 2811 2876 2875
4 2811 2812 2877 2876
4 2812 2813 2878 2877
4 2813 2814 2879 2878
4 2814 2815 2880 2879
4 2815 2816 2881 2880
4 2816 2817 2882 2881
4 2817 2818 2883 2882
4 2818 2819 2884 2883
4 2819 2820 2885 2884
4 2820 2821 2886 2885
4 2821 2822 2887 2886
4 2822 2823 2888 2887
4 2823 2824 2889 2888
4 2824 2825 2890 2889
4 2825 2826 2891 2890
4 2826 2827 2892 2891
4 2827 2828 2893 2892
4 2828 2829 2894 2893
4 2829 2830 2895 2894
4 2830 2831 2896 2895
4 2831 2832 2897 2896
4 2832 2833 2898 2897
4 2833 2834 2899 2898
4 2834 2835 2900 2899
4 2835 2836 2901 2900
4 2836 2837 2902 2901
4 2837 2838 2903 2902
4 2838 2839 2904 2903
4 2839 2840 2905 2904
4 2840 2841 2906 2905
4 2841 2842 2907 2906
4 2842 2843 2908 2907
4 2843 2844 2909 2908
4 2844 2845 2910 2909
4 2845 2846 2911 2910
4 2846 2847 2912 2911
4 2847 2848 2913 2912
4 2848 2849 2914 2913
4 2849 2850 2915 2914
4 2850 2851 2916 2915
4 2851 2852 2917 2916
4 2852 2853 2918 2917
4 2853 2854 2919 2918
4 2854 2855 2920 2919
4 2855 2856 2921 2920
4 2856 2857 2922 2921
4 2857 2858 2923 2922
4 2858 2859 2924 2923
4 2860 2861 2926 2925
4 2861 2862 2927 2926
4 2862 2863 2928 2927
4 2863 2864 2929 2928
4 2864 2865 2930 2929
4 2865 2866 2931 2930
4 2866 2867 2932 2931
4 2867 2868 2933 2932
4 2868 2869 2934 2933
4 2869 2870 2935 2934
4 2870 2871 2936 2935
4 2871 2872 2937 2936
4 2872 2873 2938 2937
4 2873 2874 2939 2938
4 2874 2875 2940 2939
4 2875 2876 2941 2940
4 2876 2877 2942 2941
4 2877 2878 2943 2942
4 2878 2879 2944 2943
4 2879 2880 2945 2944
4 2880 2881 2946 2945
4 2881 2882 2947 2946
4 2882 2883 2948 2947
4 2883 2884 2949 2948
4 2884 2885 2950 2949
4 2885 2886 2951 2950
4 2886 2887 2952 2951
4 2887 2888 2953 2952
4 2888 2889 2954 2953
4 2889 2890 2955 2954
4 2890 2891 2956 2955
4 2891 2892 2957 2956
4 2892 2893 2958 2957
4 2893 2894 2959 2958
4 2894 2895 2960 2959
4 2895 2896 2961 2960
4 2896 2897 2962 2961
4 2897 2898 2963 2962
4 2898 2899 2964 2963
4 2899 2900 2965 2964
4 2900 2901 2966 2965
4 2901 2902 2967 2966
4 2902 2903 2968 2967
4 2903 2904 2969 2968
4 2904 2905 2970 2969
4 2905 2906 2971 2970
4 2906 2907 2972 2971
4 2907 2908 2973 2972
4 2908 2909 2974 2973
4 2909 2910 2975 2974
4 2910 2911 2976 2975
4 2911 2912 2977 2976
4 2912 2913 2978 2977
4 2913 2914 2979 2978
4 2914 2915 2980 2979
4 2915 2916 2981 2980
4 2916 2917 2982 2981
4 2917 2918 2983 2982
4 2918 2919 2984 2983
4 2919 2920 2985 2984
4 2920 2921 2986 2985
4 2921 2922 2987 2986
4 2922 2923 2988 2987
4 2923 2924 2989 2988
4 2925 2926 2991 2990
4 2926 2927 2992 2991
4 2927 2928 2993 2992
4 2928 2929 2994 2993
4 2929 2930 2995 2994
4 2930 2931 2996 2995
4 2931 2932 2997 2996
4 2932 2933 2998 2997
4 2933 2934 2999 2998
4 2934 2935 3000 2999
4 2935 2936 3001 3000
4 2936 2937 3002 3001
4 2937 2938 3003 3002
4 2938 2939 3004 3003
4 2939 2940 3005 3004
4 2940 2941 3006 3005
4 2941 2942 3007 3006
4 2942 2943 3008 3007
4 2943 2944 3009 3008
4 2944 2945 3010 3009
4 2945 2946 3011 3010
4 2946 2947 3012 3011
4 2947 2948 3013 3012
4 2948 2949 3014 3013
4 2949 2950 3015 3014
4 2950 2951 3016 3015
4 2951 2952 3017 3016
4 2952 2953 3018 3017
4 2953 2954 3019 3018
4 2954 2955 3020 3019
4 2955 2956 3021 3020
4 2956 2957 3022 3021
4 2957 2958 3023 3022
4 2958 2959 3024 3023
4 2959 2960 3025 3024
4 2960 2961 3026 3025
4 2961 2962 3027 3026
4 2962 2963 3028 3027
4 2963 2964 3029 3028
4 2964 2965 3030 3029
4 2965 2966 3031 3030
4 2966 2967 3032 3031
4 2967 2968 3033 3032
4 2968 2969 3034 3033
4 2969 2970 3035 3034
4 2970 2971 3036 3035
4 2971 2972 3037 3036
4 2972 2973 3038 3037
4 2973 2974 3039 3038
4 2974 2975 3040 3039
4 2975 2976 3041 3040
4 2976 2977 3042 3041
4 2977 2978 3043 3042
4 2978 2979 3044 3043
4 2979 2980 3045 3044
4 2980 2981 3046 3045
4 2981 2982 3047 3046
4 2982 2983 3048 3047
4 2983 2984 3049 3048
4 2984 2985 3050 3049
4 2985 2986 3051 3050
4 2986 2987 3052 3051
4 2987 2988 3053 3052
4 2988 2989 3054 3053
4 2990 2991 3056 3055
4 2991 2992 3057 3056
4 2992 2993 3058 3057
4 2993 2994 3059 3058
4 2994 2995 3060 3059
4 2995 2996 3061 3060
4 2996 2997 3062 3061
4 2997 2998 3063 3062
4 2998 2999 3064 3063
4 2999 3000 3065 3064
4 3000 3001 3066 3065
4 3001 3002 3067 3066
4 3002 3003 3068 3067
4 3003 3004 3069 3068
4 3004 3005 3070 3069
4 3005 3006 3071 3070
4 3006 3007 3072 3071
4 3007 3008 3073 3072
4 3008 3009 3074 3073
4 3009 3010 3075 3074
4 3010 3011 3076 3075
4 3011 3012 3077 3076
4 3012 3013 3078 3077
4 3013 3014 3079 3078
4 3014 3015 3080 3079
4 3015 3016 3081 3080
4 3016 3017 3082 3081
4 3017 3018 3083 3082
4 3018 3019 3084 3083
4 3019 3020 3085 3084
4 3020 3021 3086 3085
4 3021 3022 3087 3086
4 3022 3023 3088 3087
4 3023 3024 3089 3088
4 3024 3025 3090 3089
4 3025 3026 3091 3090
4 3026 3027 3092 3091
4 3027 3028 3093 3092
4 3028 3029 3094 3093
4 3029 3030 3095 3094
4 3030 3031 3096 3095
4 3031 3032 3097 3096
4 3032 3033 3098 3097
4 3033 3034 3099 3098
4 3034 3035 3100 3099
4 3035 3036 3101 3100
4 3036 3037 3102 3101
4 3037 3038 3103 3102
4 3038 3039 3104 3103
4 3039 3040 3105 3104
4 3040 3041 3106 3105
4 3041 3042 3107 3106
4 3042 3043 3108 3107
4 3043 3044 3109 3108
4 3044 3045 3110 3109
4 3045 3046 3111 3110
4 3046 3047 3112 3111
4 3047 3048 3113 3112
4 3048 3049 3114 3113
4 3049 3050 3115 3114
4 3050 3051 3116 3115
4 3051 3052 3117 3116
4 3052 3053 3118 3117
4 3053 3054 3119 3118
4 3055 3056 3121 3120
4 3056 3057 3122 3121
4 3057 3058 3123 3122
4 3058 3059 3124 3123
4 3059 3060 3125 3124
4 3060 3061 3126 3125
4 3061 3062 3127 3126
4 3062 3063 3128 3127
4 3063 3064 3129 3128
4 3064 3065 3130 3129
4 3065 3066 3131 3130
4 3066 3067 3132 3131
4 3067 3068 3133 3132
4 3068 3069 3134 3133
4 3069 3070 3135 3134
4 3070 3071 3136 3135
4 3071 3072 3137 3136
4 3072 3073 3138 3137
4 3073 3074 3139 3138
4 3074 3075 3140 3139
4 3075 3076 3141 3140
4 3076 3077 3142 3141
4 3077 3078 3143 3142
4 3078 3079 3144 3143
4 3079 3080 3145 3144
4 3080 3081 3146 3145
4 3081 3082 3147 3146
4 3082 3083 3148 3147
4 3083 3084 3149 3148
4 3084 3085 3150 3149
4 3085 3086 3151 3150
4 3086 3087 3152 3151
4 3087 3088 3153 3152
4 3088 3089 3154 3153
4 3089 3090 3155 3154
4 3090 3091 3156 3155
4 3091 3092 3157 3156
4 3092 3093 3158 3157
4 3093 3094 3159 3158
4 3094 3095 3160 3159
4 3095 3096 3161 3160
4 3096 3097 3162 3161
4 3097 3098 3163 3162
4 3098 3099 3164 3163
4 3099 3100 3165 3164
4 3100 3101 3166 3165
4 3101 3102 3167 3166
4 3102 3103 3168 3167
4 3103 3104 3169 3168
4 3104 3105 3170 3169
4 3105 3106 3171 3170
4 3106 3107 3172 3171
4 3107 3108 3173 3172
4 3108 3109 3174 3173
4 3109 3110 3175 3174
4 3110 3111 3176 3175
4 3111 3112 3177 3176
4 3112 3113 3178 3177
4 3113 3114 3179 3178
4 3114 3115 3180 3179
4 3115 3116 3181 3180
4 3116 3117 3182 3181
4 3117 3118 3183 3182
4 3118 3119 3184 3183
4 3120 3121 3186 3185
4 3121 3122 3187 3186
4 3122 3123 3188 3187
4 3123 3124 3189 3188
4 3124 3125 3190 3189
4 3125 3126 3191 3190
4 3126 3127 3192 3191
4 3127 3128 3193 3192
4 3128 3129 3194 3193
4 3129 3130 3195 3194
4 3130 3131 3196 3195
4 3131 3132 3197 3196
4 3132 3133 3198 3197
4 3133 3134 3199 3198
4 3134 3135 3200 3199
4 3135 3136 3201 3200
4 3136 3137 3202 3201
4 3137 3138 3203 3202
4 3138 3139 3204 3203
4 3139 3140 3205 3204
4 3140 3141 3206 3205
4 3141 3142 3207 3206
4 3142 3143 3208 3207
4 3143 3144 3209 3208
4 3144 3145 3210 3209
4 3145 3146 3211 3210
4 3146 3147 3212 3211
4 3147 3148 3213 3212
4 3148 3149 3214 3213
4 3149 3150 3215 3214
4 3150 3151 3216 3215
4 3151 3152 3217 3216
4 3152 3153 3218 3217
4 3153 3154 3219 3218
4 3154 3155 3220 3219
4 3155 3156 3221 3220
4 3156 3157 3222 3221
4 3157 3158 3223 3222
4 3158 3159 3224 3223
4 3159 3160 3225 3224
4 3160 3161 3226 3225
4 3161 3162 3227 3226
4 3162 3163 3228 3227
4 3163 3164 3229 3228
4 3164 3165 3230 3229
4 3165 3166 3231 3230
4 3166 3167 3232 3231
4 3167 3168 3233 3232
4 3168 3169 3234 3233
4 3169 3170 3235 3234
4 3170 3171 3236 3235
4 3171 3172 3237 3236
4 3172 3173 3238 3237
4 3173 3174 3239 3238
4 3174 3175 3240 3239
4 3175 3176 3241 3240
4 3176 3177 3242 3241
4 3177 3178 3243 3242
4 3178 3179 3244 3243
4 3179 3180 3245 3244
4 3180 3181 3246 3245
4 3181 3182 3247 3246
4 3182 3183 3248 3247
4 3183 3184 3249 3248
4 3185 3186 3251 3250
4 3186 3187 3252 3251
4 3187 3188 3253 3252
4 3188 3189 3254 3253
4 3189 3190 3255 3254
4 3190 3191 3256 3255
4 3191 3192 3257 3256
4 3192 3193 3258 3257
4 3193 3194 3259 3258
4 3194 3195 3260 3259
4 3195 3196 3261 3260
4 3196 3197 3262 3261
4 3197 3198 3263 3262
4 3198 3199 3264 3263
4 3199 3200 3265 3264
4 3200 3201 3266 3265
4 3201 3202 3267 3266
4 3202 3203 3268 3267
4 3203 3204 3269 3268
4 3204 3205 3270 3269
4 3205 3206 3271 3270
4 3206 3207 3272 3271
4 3207 3208 3273 3272
4 3208 3209 3274 3273
4 3209 3210 3275 3274
4 3210 3211 3276 3275
4 3211 3212 3277 3276
4 3212 3213 3278 3277
4 3213 3214 3279 3278
4 3214 3215 3280 3279
4 3215 3216 3281 3280
4 3216 3217 3282 3281
4 3217 3218 3283 3282
4 3218 3219 3284 3283
4 3219 3220 3285 3284
4 3220 3221 3286 3285
4 3221 3222 3287 3286
4 3222 3223 3288 3287
4 3223 3224 3289 3288
4 3224 3225 3290 3289
4 3225 3226 3291 3290
4 3226 3227 3292 3291
4 3227 3228 3293 3292
4 3228 3229 3294 3293
4 3229 3230 3295 3294
4 3230 3231 3296 3295
4 3231 3232 3297 3296
4 3232 3233 3298 3297
4 3233 3234 3299 3298
4 3234 3235 3300 3299
4 3235 3236 3301 3300
4 3236 3237 3302 3301
4 3237 3238 3303 3302
4 3238 3239 3304 3303
4 3239 3240 3305 3304
4 3240 3241 3306 3305
4 3241 3242 3307 3306
4 3242 3243 3308 3307
4 3243 3244 3309 3308
4 3244 3245 3310 3309
4 3245 3246 3311 3310
4 3246 3247 3312 3311
4 3247 3248 3313 3312
4 3248 3249 3314 3313
4 3250 3251 3316 3315
4 3251 3252 3317 3316
4 3252 3253 3318 3317
4 3253 3254 3319 3318
4 3254 3255 3320 3319
4 3255 3256 3321 3320
4 3256 3257 3322 3321
4 3257 3258 3323 3322
4 3258 3259 3324 3323
4 3259 3260 3325 3324
4 3260 3261 3326 3325
4 3261 3262 3327 3326
4 3262 3263 3328 3327
4 3263 3264 3329 3328
4 3264 3265 3330 3329
4 3265 3266 3331 3330
4 3266 3267 3332 3331
4 3267 3268 3333 3332
4 3268 3269 3334 3333
4 3269 3270 3335 3334
4 3270 3271 3336 3335
4 3271 3272 3337 3336
4 3272 3273 3338 3337
4 3273 3274 3339 3338
4 3274 3275 3340 3339
4 3275 3276 3341 3340
4 3276 3277 3342 3341
4 3277 3278 3343 3342
4 3278 3279 3344 3343
4 3279 3280 3345 3344
4 3280 3281 3346 3345
4 3281 3282 3347 3346
4 3282 3283 3348 3347
4 3283 3284 3349 3348
4 3284 3285 3350 3349
4 3285 3286 3351 3350
4 3286 3287 3352 3351
4 3287 3288 3353 3352
4 3288 3289 3354 3353
4 3289 3290 3355 3354
4 3290 3291 3356 3355
4 3291 3292 3357 3356
4 3292 3293 3358 3357
4 3293 3294 3359 3358
4 3294 3295 3360 3359
4 3295 3296 3361 3360
4 3296 3297 3362 3361
4 3297 3298 3363 3362
4 3298 3299 3364 3363
4 3299 3300 3365 3364
4 3300 3301 3366 3365
4 3301 3302 3367 3366
4 3302 3303 3368 3367
4 3303 3304 3369 3368
4 3304 3305 3370 3369
4 3305 3306 3371 3370
4 3306 3307 3372 3371
4 3307 3308 3373 3372
4 3308 3309 3374 3373
4 3309 3310 3375 3374
4 3310 3311 3376 3375
4 3311 3312 3377 3376
4 3312 3313 3378 3377
4 3313 3314 3379 3378
4 3315 3316 3381 3380
4 3316 3317 3382 3381
4 3317 3318 3383 3382
4 3318 3319 3384 3383
4 3319 3320 3385 3384
4 3320 3321 3386 3385
4 3321 3322 3387 3386
4 3322 3323 3388 3387
4 3323 3324 3389 3388
4 3324 3325 3390 3389
4 3325 3326 3391 3390
4 3326 3327 3392 3391
4 3327 3328 3393 3392
4 3328 3329 3394 3393
4 3329 3330 3395 3394
4 3330 3331 3396 3395
4 3331 3332 3397 3396
4 3332 3333 3398 3397
4 3333 3334 3399 3398
4 3334 3335 3400 3399
4 3335 3336 3401 3400
4 3336 3337 3402 3401
4 3337 3338 3403 3402
4 3338 3339 3404 3403
4 3339 3340 3405 3404
4 3340 3341 3406 3405
4 3341 3342 3407 3406
4 3342 3343 3408 3407
4 3343 3344 3409 3408
4 3344 3345 3410 3409
4 3345 3346 3411 3410
4 3346 3347 3412 3411
4 3347 3348 3413 3412
4 3348 3349 3414 3413
4 3349 3350 3415 3414
4 3350 3351 3416 3415
4 3351 3352 3417 3416
4 3352 3353 3418 3417
4 3353 3354 3419 3418
4 3354 3355 3420 3419
4 3355 3356 3421 3420
4 3356 3357 3422 3421
4 3357 3358 3423 3422
4 3358 3359 3424 3423
4 3359 3360 3425 3424
4 3360 3361 3426 3425
4 3361 3362 3427 3426
4 3362 3363 3428 3427
4 3363 3364 3429 3428
4 3364 3365 3430 3429
4 3365 3366 3431 3430
4 3366 3367 3432 3431
4 3367 3368 3433 3432
4 3368 3369 3434 3433
4 3369 3370 3435 3434
4 3370 3371 3436 3435
4 3371 3372 3437 3436
4 3372 3373 3438 3437
4 3373 3374 3439 3438
4 3374 3375 3440 3439
4 3375 3376 3441 3440
4 3376 3377 3442 3441
4 3377 3378 3443 3442
4 3378 3379 3444 3443
4 3380 3381 3446 3445
4 3381 3382 3447 3446
4 3382 3383 3448 3447
4 3383 3384 3449 3448
4 3384 3385 3450 3449
4 3385 3386 3451 3450
4 3386 3387 3452 3451
4 3387 3388 3453 3452
4 3388 3389 3454 3453
4 3389 3390 3455 3454
4 3390 3391 3456 3455
4 3391 3392 3457 3456
4 3392 3393 3458 3457
4 3393 3394 3459 3458
4 3394 3395 3460 3459
4 3395 3396 3461 3460
4 3396 3397 3462 3461
4 3397 3398 3463 3462
4 3398 3399 3464 3463
4 3399 3400 3465 3464
4 3400 3401 3466 3465
4 3401 3402 3467 3466
4 3402 3403 3468 3467
4 3403 3404 3469 3468
4 3404 3405 3470 3469
4 3405 3406 3471 3470
4 3406 3407 3472 3471
4 3407 3408 3473 3472
4 3408 3409 3474 3473
4 3409 3410 3475 3474
4 3410 3411 3476 3475
4 3411 3412 3477 3476
4 3412 3413 3478 3477
4 3413 3414 3479 3478
4 3414 3415 3480 3479
4 3415 3416 3481 3480
4 3416 3417 3482 3481
4 3417 3418 3483 3482
4 3418 3419 3484 3483
4 3419 3420 3485 3484
4 3420 3421 3486 3485
4 3421 3422 3487 3486
4 3422 3423 3488 3487
4 3423 3424 3489 3488
4 3424 3425 3490 3489
4 3425 3426 3491 3490
4 3426 3427 3492 3491
4 3427 3428 3493 3492
4 3428 3429 3494 3493
4 3429 3430 3495 3494
4 3430 3431 3496 3495
4 3431 3432 3497 3496
4 3432 3433 3498 3497
4 3433 3434 3499 3498
4 3434 3435 3500 3499
4 3435 3436 3501 3500
4 3436 3437 3502 3501
4 3437 3438 3503 3502
4 3438 3439 3504 3503
4 3439 3440 3505 3504
4 3440 3441 3506 3505
4 3441 3442 3507 3506
4 3442 3443 3508 3507
4 3443 3444 3509 3508
4 3445 3446 3511 3510
4 3446 3447 3512 3511
4 3447 3448 3513 3512
4 3448 3449 3514 3513
4 3449 3450 3515 3514
4 3450 3451 3516 3515
4 3451 3452 3517 3516
4 3452 3453 3518 3517
4 3453 3454 3519 3518
4 3454 3455 3520 3519
4 3455 3456 3521 3520
4 3456 3457 3522 3521
4 3457 3458 3523 3522
4 3458 3459 3524 3523
4 3459 3460 3525 3524
4 3460 3461 3526 3525
4 3461 3462 3527 3526
4 3462 3463 3528 3527
4 3463 3464 3529 3528
4 3464 3465 3530 3529
4 3465 3466 3531 3530
4 3466 3467 3532 3531
4 3467 3468 3533 3532
4 3468 3469 3534 3533
4 3469 3470 3535 3534
4 3470 3471 3536 3535
4 3471 3472 3537 3536
4 3472 3473 3538 3537
4 3473 3474 3539 3538
4 3474 3475 3540 3539
4 3475 3476 3541 3540
4 3476 3477 3542 3541
4 3477 3478 3543 3542
4 3478 3479 3544 3543
4 3479 3480 3545 3544
4 3480 3481 3546 3545
4 3481 3482 3547 3546
4 3482 3483 3548 3547
4 3483 3484 3549 3548
4 3484 3485 3550 3549
4 3485 3486 3551 3550
4 3486 3487 3552 3551
4 3487 3488 3553 3552
4 3488 3489 3554 3553
4 3489 3490 3555 3554
4 3490 3491 3556 3555
4 3491 3492 3557 3556
4 3492 3493 3558 3557
4 3493 3494 3559 3558
4 3494 3495 3560 3559
4 3495 3496 3561 3560
4 3496 3497 3562 3561
4 3497 3498 3563 3562
4 3498 3499 3564 3563
4 3499 3500 3565 3564
4 3500 3501 3566 3565
4 3501 3502 3567 3566
4 3502 3503 3568 3567
4 3503 3504 3569 3568
4 3504 3505 3570 3569
4 3505 3506 3571 3570
4 3506 3507 3572 3571
4 3507 3508 3573 3572
4 3508 3509 3574 3573
4 3510 3511 3576 3575
4 3511 3512 3577 3576
4 3512 3513 3578 3577
4 3513 3514 3579 3578
4 3514 3515 3580 3579
4 3515 3516 3581 3580
4 3516 3517 3582 3581
4 3517 3518 3583 3582
4 3518 3519 3584 3583
4 3519 3520 3585 3584
4 3520 3521 3586 3585
4 3521 3522 3587 3586
4 3522 3523 3588 3587
4 3523 3524 3589 3588
4 3524 3525 3590 3589
4 3525 3526 3591 3590
4 3526 3527 3592 3591
4 3527 3528 3593 3592
4 3528 3529 3594 3593
4 3529 3530 3595 3594
4 3530 3531 3596 3595
4 3531 3532 3597 3596
4 3532 3533 3598 3597
4 3533 3534 3599 3598
4 3534 3535 3600 3599
4 3535 3536 3601 3600
4 3536 3537 3602 3601
4 3537 3538 3603 3602
4 3538 3539 3604 3603
4 3539 3540 3605 3604
4 3540 3541 3606 3605
4 3541 3542 3607 3606
4 3542 3543 3608 3607
4 3543 3544 3609 3608
4 3544 3545 3610 3609
4 3545 3546 3611 3610
4 3546 3547 3612 3611
4 3547 3548 3613 3612
4 3548 3549 3614 3613
4 3549 3550 3615 3614
4 3550 3551 3616 3615
4 3551 3552 3617 3616
4 3552 3553 3618 3617
4 3553 3554 3619 3618
4 3554 3555 3620 3619
4 3555 3556 3621 3620
4 3556 3557 3622 3621
4 3557 3558 3623 3622
4 3558 3559 3624 3623
4 3559 3560 3625 3624
4 3560 3561 3626 3625
4 3561 3562 3627 3626
4 3562 3563 3628 3627
4 3563 3564 3629 3628
4 3564 3565 3630 3629
4 3565 3566 3631 3630
4 3566 3567 3632 3631
4 3567 3568 3633 3632
4 3568 3569 3634 3633
4 3569 3570 3635 3634
4 3570 3571 3636 3635
4 3571 3572 3637 3636
4 3572 3573 3638 3637
4 3573 3574 3639 3638
4 3575 3576 3641 3640
4 3576 3577 3642 3641
4 3577 3578 3643 3642
4 3578 3579 3644 3643
4 3579 3580 3645 3644
4 3580 3581 3646 3645
4 3581 3582 3647 3646
4 3582 3583 3648 3647
4 3583 3584 3649 3648
4 3584 3585 3650 3649
4 3585 3586 3651 3650
4 3586 3587 3652 3651
4 3587 3588 3653 3652
4 3588 3589 3654 3653
4 3589 3590 3655 3654
4 3590 3591 3656 3655
4 3591 3592 3657 3656
4 3592 3593 3658 3657
4 3593 3594 3659 3658
4 3594 3595 3660 3659
4 3595 3596 3661 3660
4 3596 3597 3662 3661
4 3597 3598 3663 3662
4 3598 3599 3664 3663
4 3599 3600 3665 3664
4 3600 3601 3666 3665
4 3601 3602 3667 3666
4 3602 3603 3668 3667
4 3603 3604 3669 3668
4 3604 3605 3670 3669
4 3605 3606 3671 3670
4 3606 3607 3672 3671
4 3607 3608 3673 3672
4 3608 3609 3674 3673
4 3609 3610 3675 3674
4 3610 3611 3676 3675
4 3611 3612 3677 3676
4 3612 3613 3678 3677
4 3613 3614 3679 3678
4 3614 3615 3680 3679
4 3615 3616 3681 3680
4 3616 3617 3682 3681
4 3617 3618 3683 3682
4 3618 3619 3684 3683
4 3619 3620 3685 3684
4 3620 3621 3686 3685
4 3621 3622 3687 3686
4 3622 3623 3688 3687
4 3623 3624 3689 3688
4 3624 3625 3690 3689
4 3625 3626 3691 3690
4 3626 3627 3692 3691
4 3627 3628 3693 3692
4 3628 3629 3694 3693
4 3629 3630 3695 3694
4 3630 3631 3696 3695
4 3631 3632 3697 3696
4 3632 3633 3698 3697
4 3633 3634 3699 3698
4 3634 3635 3700 3699
4 3635 3636 3701 3700
4 3636 3637 3702 3701
4 3637 3638 3703 3702
4 3638 3639 3704 3703
4 3640 3641 3706 3705
4 3641 3642 3707 3706
4 3642 3643 3708 3707
4 3643 3644 3709 3708
4 3644 3645 3710 3709
4 3645 3646 3711 3710
4 3646 3647 3712 3711
4 3647 3648 3713 3712
4 3648 3649 3714 3713
4 3649 3650 3715 3714
4 3650 3651 3716 3715
4 3651 3652 3717 3716
4 3652 3653 3718 3717
4 3653 3654 3719 3718
4 3654 3655 3720 3719
4 3655 3656 3721 3720
4 3656 3657 3722 3721
4 3657 3658 3723 3722
4 3658 3659 3724 3723
4 3659 3660 3725 3724
4 3660 3661 3726 3725
4 3661 3662 3727 3726
4 3662 3663 3728 3727
4 3663 3664 3729 3728
4 3664 3665 3730 3729
4 3665 3666 3731 3730
4 3666 3667 3732 3731
4 3667 3668 3733 3732
4 3668 3669 3734 3733
4 3669 3670 3735 3734
4 3670 3671 3736 3735
4 3671 3672 3737 3736
4 3672 3673 3738 3737
4 3673 3674 3739 3738
4 3674 3675 3740 3739
4 3675 3676 3741 3740
4 3676 3677 3742 3741
4 3677 3678 3743 3742
4 3678 3679 3744 3743
4 3679 3680 3745 3744
4 3680 3681 3746 3745
4 3681 3682 3747 3746
4 3682 3683 3748 3747
4 3683 3684 3749 3748
4 3684 3685 3750 3749
4 3685 3686 3751 3750
4 3686 3687 3752 3751
4 3687 3688 3753 3752
4 3688 3689 3754 3753
4 3689 3690 3755 3754
4 3690 3691 3756 3755
4 3691 3692 3757 3756
4 3692 3693 3758 3757
4 3693 3694 3759 3758
4 3694 3695 3760 3759
4 3695 3696 3761 3760
4 3696 3697 3762 3761
4 3697 3698 3763 3762
4 3698 3699 3764 3763
4 3699 3700 3765 3764
4 3700 3701 3766 3765
4 3701 3702 3767 3766
4 3702 3703 3768 3767
4 3703 3704 3769 3768
4 3705 3706 3771 3770
4 3706 3707 3772 3771
4 3707 3708 3773 3772
4 3708 3709 3774 3773
4 3709 3710 3775 3774
4 3710 3711 3776 3775
4 3711 3712 3777 3776
4 3712 3713 3778 3777
4 3713 3714 3779 3778
4 3714 3715 3780 3779
4 3715 3716 3781 3780
4 3716 3717 3782 3781
4 3717 3718 3783 3782
4 3718 3719 3784 3783
4 3719 3720 3785 3784
4 3720 3721 3786 3785
4 3721 3722 3787 3786
4 3722 3723 3788 3787
4 3723 3724 3789 3788
4 3724 3725 3790 3789
4 3725 3726 3791 3790
4 3726 3727 3792 3791
4 3727 3728 3793 3792
4 3728 3729 3794 3793
4 3729 3730 3795 3794
4 3730 3731 3796 3795
4 3731 3732 3797 3796
4 3732 3733 3798 3797
4 3733 3734 3799 3798
4 3734 3735 3800 3799
4 3735 3736 3801 3800
4 3736 3737 3802 3801
4 3737 3738 3803 3802
4 3738 3739 3804 3803
4 3739 3740 3805 3804
4 3740 3741 3806 3805
4 3741 3742 3807 3806
4 3742 3743 3808 3807
4 3743 3744 3809 3808
4 3744 3745 3810 3809
4 3745 3746 3811 3810
4 3746 3747 3812 3811
4 3747 3748 3813 3812
4 3748 3749 3814 3813
4 3749 3750 3815 3814
4 3750 3751 3816 3815
4 3751 3752 3817 3816
4 3752 3753 3818 3817
4 3753 3754 3819 3818
4 3754 3755 3820 3819
4 3755 3756 3821 3820
4 3756 3757 3822 3821
4 3757 3758 3823 3822
4 3758 3759 3824 3823
4 3759 3760 3825 3824
4 3760 3761 3826 3825
4 3761 3762 3827 3826
4 3762 3763 3828 3827
4 3763 3764 3829 3828
4 3764 3765 3830 3829
4 3765 3766 3831 3830
4 3766 3767 3832 3831
4 3767 3768 3833 3832
4 3768 3769 3834 3833
4 3770 3771 3836 3835
4 3771 3772 3837 3836
4 3772 3773 3838 3837
4 3773 3774 3839 3838
4 3774 3775 3840 3839
4 3775 3776 3841 3840
4 3776 3777 3842 3841
4 3777 3778 3843 3842
4 3778 3779 3844 3843
4 3779 3780 3845 3844
4 3780 3781 3846 3845
4 3781 3782 3847 3846
4 3782 3783 3848 3847
4 3783 3784 3849 3848
4 3784 3785 3850 3849
4 3785 3786 3851 3850
4 3786 3787 3852 3851
4 3787 3788 3853 3852
4 3788 3789 3854 3853
4 3789 3790 3855 3854
4 3790 3791 3856 3855
4 3791 3792 3857 3856
4 3792 3793 3858 3857
4 3793 3794 3859 3858
4 3794 3795 3860 3859
4 3795 3796 3861 3860
4 3796 3797 3862 3861
4 3797 3798 3863 3862
4 3798 3799 3864 3863
4 3799 3800 3865 3864
4 3800 3801 3866 3865
4 3801 3802 3867 3866
4 3802 3803 3868 3867
4 3803 3804 3869 3868
4 3804 3805 3870 3869
4 3805 3806 3871 3870
4 3806 3807 3872 3871
4 3807 3808 3873 3872
4 3808 3809 3874 3873
4 3809 3810 3875 3874
4 3810 3811 3876 3875
4 3811 3812 3877 3876
4 3812 3813 3878 3877
4 3813 3814 3879 3878
4 3814 3815 3880 3879
4 3815 3816 3881 3880
4 3816 3817 3882 3881
4 3817 3818 3883 3882
4 3818 3819 3884 3883
4 3819 3820 3885 3884
4 3820 3821 3886 3885
4 3821 3822 3887 3886
4 3822 3823 3888 3887
4 3823 3824 3889 3888
4 3824 3825 3890 3889
4 3825 3826 3891 3890
4 3826 3827 3892 3891
4 3827 3828 3893 3892
4 3828 3829 3894 3893
4 3829 3830 3895 3894
4 3830 3831 3896 3895
4 3831 3832 3897 3896
4 3832 3833 3898 3897
4 3833 3834 3899 3898
4 3835 3836 3901 3900
4 3836 3837 3902 3901
4 3837 3838 3903 3902
4 3838 3839 3904 3903
4 3839 3840 3905 3904
4 3840 3841 3906 3905
4 3841 3842 3907 3906
4 3842 3843 3908 3907
4 3843 3844 3909 3908
4 3844 3845 3910 3909
4 3845 3846 3911 3910
4 3846 3847 3912 3911
4 3847 3848 3913 3912
4 3848 3849 3914 3913
4 3849 3850 3915 3914
4 3850 3851 3916 3915
4 3851 3852 3917 3916
4 3852 3853 3918 3917
4 3853 3854 3919 3918
4 3854 3855 3920 3919
4 3855 3856 3921 3920
4 3856 3857 3922 3921
4 3857 3858 3923 3922
4 3858 3859 3924 3923
4 3859 3860 3925 3924
4 3860 3861 3926 3925
4 3861 3862 3927 3926
4 3862 3863 3928 3927
4 3863 3864 3929 3928
4 3864 3865 3930 3929
4 3865 3866 3931 3930
4 3866 3867 3932 3931
4 3867 3868 3933 3932
4 3868 3869 3934 3933
4 3869 3870 3935 3934
4 3870 3871 3936 3935
4 3871 3872 3937 3936
4 3872 3873 3938 3937
4 3873 3874 3939 3938
4 3874 3875 3940 3939
4 3875 3876 3941 3940
4 3876 3877 3942 3941
4 3877 3878 3943 3942
4 3878 3879 3944 3943
4 3879 3880 3945 3944
4 3880 3881 3946 3945
4 3881 3882 3947 3946
4 3882 3883 3948 3947
4 3883 3884 3949 3948
4 3884 3885 3950 3949
4 3885 3886 3951 3950
4 3886 3887 3952 3951
4 3887 3888 3953 3952
4 3888 3889 3954 3953
4 3889 3890 3955 3954
4 3890 3891 3956 3955
4 3891 3892 3957 3956
4 3892 3893 3958 3957
4 3893 3894 3959 3958
4 3894 3895 3960 3959
4 3895 3896 3961 3960
4 3896 3897 3962 3961
4 3897 3898 3963 3962
4 3898 3899 3964 3963
4 3900 3901 3966 3965
4 3901 3902 3967 3966
4 3902 3903 3968 3967
4 3903 3904 3969 3968
4 3904 3905 3970 3969
4 3905 3906 3971 3970
4 3906 3907 3972 3971
4 3907 3908 3973 3972
4 3908 3909 3974 3973
4 3909 3910 3975 3974
4 3910 3911 3976 3975
4 3911 3912 3977 3976
4 3912 3913 3978 3977
4 3913 3914 3979 3978
4 3914 3915 3980 3979
4 3915 3916 3981 3980
4 3916 3917 3982 3981
4 3917 3918 3983 3982
4 3918 3919 3984 3983
4 3919 3920 3985 3984
4 3920 3921 3986 3985
4 3921 3922 3987 3986
4 3922 3923 3988 3987
4 3923 3924 3989 3988
4 3924 3925 3990 3989
4 3925 3926 3991 3990
4 3926 3927 3992 3991
4 3927 3928 3993 3992
4 3928 3929 3994 3993
4 3929 3930 3995 3994
4 3930 3931 3996 3995
4 3931 3932 3997 3996
4 3932 3933 3998 3997
4 3933 3934 3999 3998
4 3934 3935 4000 3999
4 3935 3936 4001 4000
4 3936 3937 4002 4001
4 3937 3938 4003 4002
4 3938 3939 4004 4003
4 3939 3940 4005 4004
4 3940 3941 4006 4005
4 3941 3942 4007 4006
4 3942 3943 4008 4007
4 3943 3944 4009 4008
4 3944 3945 4010 4009
4 3945 3946 4011 4010
4 3946 3947 4012 4011
4 3947 3948 4013 4012
4 3948 3949 4014 4013
4 3949 3950 4015 4014
4 3950 3951 4016 4015
4 3951 3952 4017 4016
4 3952 3953 4018 4017
4 3953 3954 4019 4018
4 3954 3955 4020 4019
4 3955 3956 4021 4020
4 3956 3957 4022 4021
4 3957 3958 4023 4022
4 3958 3959 4024 4023
4 3959 3960 4025 4024
4 3960 3961 4026 4025
4 3961 3962 4027 4026
4 3962 3963 4028 4027
4 3963 3964 4029 4028
4 3965 3966 4031 4030
4 3966 3967 4032 4031
4 3967 3968 4033 4032
4 3968 3969 4034 4033
4 3969 3970 4035 4034
4 3970 3971 4036 4035
4 3971 3972 4037 4036
4 3972 3973 4038 4037
4 3973 3974 4039 4038
4 3974 3975 4040 4039
4 3975 3976 4041 4040
4 3976 3977 4042 4041
4 3977 3978 4043 4042
4 3978 3979 4044 4043
4 3979 3980 4045 4044
4 3980 3981 4046 4045
4 3981 3982 4047 4046
4 3982 3983 4048 4047
4 3983 3984 4049 4048
4 3984 3985 4050 4049
4 3985 3986 4051 4050
4 3986 3987 4052 4051
4 3987 3988 4053 4052
4 3988 3989 4054 4053
4 3989 3990 4055 4054
4 3990 3991 4056 4055
4 3991 3992 4057 4056
4 3992 3993 4058 4057
4 3993 3994 4059 4058
4 3994 3995 4060 4059
4 3995 3996 4061 4060
4 3996 3997 4062 4061
4 3997 3998 4063 4062
4 3998 3999 4064 4063
4 3999 4000 4065 4064
4 4000 4001 4066 4065
4 4001 4002 4067 4066
4 4002 4003 4068 4067
4 4003 4004 4069 4068
4 4004 4005 4070 4069
4 4005 4006 4071 4070
4 4006 4007 4072 4071
4 4007 4008 4073 4072
4 4008 4009 4074 4073
4 4009 4010 4075 4074
4 4010 4011 4076 4075
4 4011 4012 4077 4076
4 4012 4013 4078 4077
4 4013 4014 4079 4078
4 4014 4015 4080 4079
4 4015 4016 4081 4080
4 4016 4017 4082 4081
4 4017 4018 4083 4082
4 4018 4019 4084 4083
4 4019 4020 4085 4084
4 4020 4021 4086 4085
4 4021 4022 4087 4086
4 4022 4023 4088 4087
4 4023 4024 4089 4088
4 4024 4025 4090 4089
4 4025 4026 4091 4090
4 4026 4027 4092 4091
4 4027 4028 4093 4092
4 4028 4029 4094 4093
4 4030 4031 4096 4095
4 4031 4032 4097 4096
4 4032 4033 4098 4097
4 4033 4034 4099 4098
4 4034 4035 4100 4099
4 4035 4036 4101 4100
4 4036 4037 4102 4101
4 4037 4038 4103 4102
4 4038 4039 4104 4103
4 4039 4040 4105 4104
4 4040 4041 4106 4105
4 4041 4042 4107 4106
4 4042 4043 4108 4107
4 4043 4044 4109 4108
4 4044 4045 4110 4109
4 4045 4046 4111 4110
4 4046 4047 4112 4111
4 4047 4048 4113 4112
4 4048 4049 4114 4113
4 4049 4050 4115 4114
4 4050 4051 4116 4115
4 4051 4052 4117 4116
4 4052 4053 4118 4117
4 4053 4054 4119 4118
4 4054 4055 4120 4119
4 4055 4056 4121 4120
4 4056 4057 4122 4121
4 4057 4058 4123 4122
4 4058 4059 4124 4123
4 4059 4060 4125 4124
4 4060 4061 4126 4125
4 4061 4062 4127 4126
4 4062 4063 4128 4127
4 4063 4064 4129 4128
4 4064 4065 4130 4129
4 4065 4066 4131 4130
4 4066 4067 4132 4131
4 4067 4068 4133 4132
4 4068 4069 4134 4133
4 4069 4070 4135 4134
4 4070 4071 4136 4135
4 4071 4072 4137 4136
4 4072 4073 4138 4137
4 4073 4074 4139 4138
4 4074 4075 4140 4139
4 4075 4076 4141 4140
4 4076 4077 4142 4141
4 4077 4078 4143 4142
4 4078 4079 4144 4143
4 4079 4080 4145 4144
4 4080 4081 4146 4145
4 4081 4082 4147 4146
4 4082 4083 4148 4147
4 4083 4084 4149 4148
4 4084 4085 4150 4149
4 4085 4086 4151 4150
4 4086 4087 4152 4151
4 4087 4088 4153 4152
4 4088 4089 4154 4153
4 4089 4090 4155 4154
4 4090 4091 4156 4155
4 4091 4092 4157 4156
4 4092 4093 4158 4157
4 4093 4094 4159 4158
4 4095 4096 4161 4160
4 4096 4097 4162 4161
4 4097 4098 4163 4162
4 4098 4099 4164 4163
4 4099 4100 4165 4164
4 4100 4101 4166 4165
4 4101 4102 4167 4166
4 4102 4103 4168 4167
4 4103 4104 4169 4168
4 4104 4105 4170 4169
4 4105 4106 4171 4170
4 4106 4107 4172 4171
4 4107 4108 4173 4172
4 4108 4109 4174 4173
4 4109 4110 4175 4174
4 4110 4111 4176 4175
4 4111 4112 4177 4176
4 4112 4113 4178 4177
4 4113 4114 4179 4178
4 4114 4115 4180 4179
4 4115 4116 4181 4180
4 4116 4117 4182 4181
4 4117 4118 4183 4182
4 4118 4119 4184 4183
4 4119 4120 4185 4184
4 4120 4121 4186 4185
4 4121 4122 4187 4186
4 4122 4123 4188 4187
4 4123 4124 4189 4188
4 4124 4125 4190 4189
4 4125 4126 4191 4190
4 4126 4127 4192 4191
4 4127 4128 4193 4192
4 4128 4129 4194 4193
4 4129 4130 4195 4194
4 4130 4131 4196 4195
4 4131 4132 4197 4196
4 4132 4133 4198 4197
4 4133 4134 4199 4198
4 4134 4135 4200 4199
4 4135 4136 4201 4200
4 4136 4137 4202 4201
4 4137 4138 4203 4202
4 4138 4139 4204 4203
4 4139 4140 4205 4204
4 4140 4141 4206 4205
4 4141 4142 4207 4206
4 4142 4143 4208 4207
4 4143 4144 4209 4208
4 4144 4145 4210 4209
4 4145 4146 4211 4210
4 4146 4147 4212 4211
4 4147 4148 4213 4212
4 4148 4149 4214 4213
4 4149 4150 4215 4214
4 4150 4151 4216 4215
4 4151 4152 4217 4216
4 4152 4153 4218 4217
4 4153 4154 4219 4218
4 4154 4155 4220 4219
4 4155 4156 4221 4220
4 4156 4157 4222 4221
4 4157 4158 4223 4222
4 4158 4159 4224 4223
CELL_TYPES 4096
9
9
9
9
9
9
9
9
9
9
9
9
9
9
9
9
9
9
9
9
9
9
9
9
9
9
9
9
9
9
9
9
9
9
9
9
9
9
9
9
9
9
9
9
9
9
9
9
9
9
9
9
9
9
9
9
9
9
9
9
9
9
9
9
9
9
9
9
9
9
9
9
9
9
9
9
9
9
9
9
9
9
9
9
9
9
9
9
9
9
9
9
9
9
9
9
9
9
9
9
9
9
9
9
9
9
9
9
9
9
9
9
9
9
9
9
9
9
9
9
9
9
9
9
9
9
9
9
9
9
9
9
9
9
9
9
9
9
9
9
9
9
9
9
9
9
9
9
9
9
9
9
9
9
9
9
9
9
9
9
9
9
9
9
9
9
9
9
9
9
9
9
9
9
9
9
9
9
9
9
9
9
9
9
9
9
9
9
9
9
9
9
9
9
9
9
9
9
9
9
9
9
9
9
9
9
9
9
9
9
9
9
9
9
9
9
9
9
9
9
9
9
9
9
9
9
9
9
9
9
9
9
9
9
9
9
9
9
9
9
9
9
9
9
9
9
9
9
9
9
9
9
9
9
9
9
9
9
9
9
9
9
9
9
9
9
9
9
9
9
9
9
9
9
9
9
9
9
9
9
9
9
9
9
9
9
9
9
9
9
9
9
9
9
9
9
9
9
9
9
9
9
9
9
9
9
9
9
9
9
9
9
9
9
9
9
9
9
9
9
9
9
9
9
9
9
9
9
9
9
9
9
9
9
9
9
9
9
9
9
9
9
9
9
9
9
9
9
9
9
9
9
9
9
9
9
9
9
9
9
9
9
9
9
9
9
9
9
9
9
9
9
9
9
9
9
9
9
9
9
9
9
9
9
9
9
9
9
9
9
9
9
9
9
9
9
9
9
9
9
9
9
9
9
9
9
9
9
9
9
9
9
9
9
9
9
9
9
9
9
9
9
9
9
9
9
9
9
9
9
9
9
9
9
9
9
9
9
9
9
9
9
9
9
9
9
9
9
9
9
9
9
9
9
9
9
9
9
9
9
9
9
9
9
9
9
9
9
9
9
9
9
9
9
9
9
9
9
9
9
9
9
9
9
9
9
9
9
9
9
9
9
9
9
9
9
9
9
9
9
9
9
9
9
9
9
9
9
9
9
9
9
9
9
9
9
9
9
9
9
9
9
9
9
9
9
9
9
9
9
9
9
9
9
9
9
9
9
9
9
9
9
9
9
9
9
9
9
9
9
9
9
9
9
9
9
9
9
9
9
9
9
9
9
9
9
9
9
9
9
9
9
9
9
9
9
9
9
9
9
9
9
9
9
9
9
9
9
9
9
9
9
9
9
9
9
9
9
9
9
9
9
9
9
9
9
9
9
9
9
9
9
9
9
9
9
9
9
9
9
9
9
9
9
9
9
9
9
9
9
9
9
9
9
9
9
9
9
9
9
9
9
9
9
9
9
9
9
9
9
9
9
9
9
9
9
9
9
9
9
9
9
9
9
9
9
9
9
9
9
9
9
9
9
9
9
9
9
9
9
9
9
9
9
9
9
9
9
9
9
9
9
9
9
9
9
9
9
9
9
9
9
9
9
9
9
9
9
9
9
9
9
9
9
9
9
9
9
9
9
9
9
9
9
9
9
9
9
9
9
9
9
9
9
9
9
9
9
9
9
9
9
9
9
9
9
9
9
9
9
9
9
9
9
9
9
9
9
9
9
9
9
9
9
9
9
9
9
9
9
9
9
9
9
9
9
9
9
9
9
9
9
9
9
9
9
9
9
9
9
9
9
9
9
9
9
9
9
9
9
9
9
9
9
9
9
9
9
9
9
9
9
9
9
9
9
9
9
9
9
9
9
9
9
9
9
9
9
9
9
9
9
9
9
9
9
9
9
9
9
9
9
9
9
9
9
9
9
9
9
9
9
9
9
9
9
9
9
9
9
9
9
9
9
9
9
9
9
9
9
9
9
9
9
9
9
9
9
9
9
9
9
9
9
9
9
9
9
9
9
9
9
9
9
9
9
9
9
9
9
9
9
9
9
9
9
9
9
9
9
9
9
9
9
9
9
9
9
9
9
9
9
9
9
9
9
9
9
9
9
9
9
9
9
9
9
9
9
9
9
9
9
9
9
9
9
9
9
9
9
9
9
9
9
9
9
9
9
9
9
9
9
9
9
9
9
9
9
9
9
9
9
9
9
9
9
9
9
9
9
9
9
9
9
9
9
9
9
9
9
9
9
9
9
9
9
9
9
9
9
9
9
9
9
9
9
9
9
9
9
9
9
9
9
9
9
9
9
9
9
9
9
9
9
9
9
9
9
9
9
9
9
9
9
9
9
9
9
9
9
9
9
9
9
9
9
9
9
9
9
9
9
9
9
9
9
9
9
9
9
9
9
9
9
9
9
9
9
9
9
9
9
9
9
9
9
9
9
9
9
9
9
9
9
9
9
9
9
9
9
9
9
9
9
9
9
9
9
9
9
9
9
9
9
9
9
9
9
9
9
9
9
9
9
9
9
9
9
9
9
9
9
9
9
9
9
9
9
9
9
9
9
9
9
9
9
9
9
9
9
9
9
9
9
9
9
9
9
9
9
9
9
9
9
9
9
9
9
9
9
9
9
9
9
9
9
9
9
9
9
9
9
9
9
9
9
9
9
9
9
9
9
9
9
9
9
9
9
9
9
9
9
9
9
9
9
9
9
9
9
9
9
9
9
9
9
9
9
9
9
9
9
9
9
9
9
9
9
9
9
9
9
9
9
9
9
9
9
9
9
9
9
9
9
9
9
9
9
9
9
9
9
9
9
9
9
9
9
9
9
9
9
9
9
9
9
9
9
9
9
9
9
9
9
9
9
9
9
9
9
9
9
9
9
9
9
9
9
9
9
9
9
9
9
9
9
9
9
9
9
9
9
9
9
9
9
9
9
9
9
9
9
9
9
9
9
9
9
9
9
9
9
9
9
9
9
9
9
9
9
9
9
9
9
9
9
9
9
9
9
9
9
9
9
9
9
9
9
9
9
9
9
9
9
9
9
9
9
9
9
9
9
9
9
9
9
9
9
9
9
9
9
9
9
9
9
9
9
9
9
9
9
9
9
9
9
9
9
9
9
9
9
9
9
9
9
9
9
9
9
9
9
9
9
9
9
9
9
9
9
9
9
9
9
9
9
9
9
9
9
9
9
9
9
9
9
9
9
9
9
9
9
9
9
9
9
9
9
9
9
9
9
9
9
9
9
9
9
9
9
9
9
9
9
9
9
9
9
9
9
9
9
9
9
9
9
9
9
9
9
9
9
9
9
9
9
9
9
9
9
9
9
9
9
9
9
9
9
9
9
9
9
9
9
9
9
9
9
9
9
9
9
9
9
9
9
9
9
9
9
9
9
9
9
9
9
9
9
9
9
9
9
9
9
9
9
9
9
9
9
9
9
9
9
9
9
9
9
9
9
9
9
9
9
9
9
9
9
9
9
9
9
9
9
9
9
9
9
9
9
9
9
9
9
9
9
9
9
9
9
9
9
9
9
9
9
9
9
9
9
9
9
9
9
9
9
9
9
9
9
9
9
9
9
9
9
9
9
9
9
9
9
9
9
9
9
9
9
9
9
9
9
9
9
9
9
9
9
9
9
9
9
9
9
9
9
9
9
9
9
9
9
9
9
9
9
9
9
9
9
9
9
9
9
9
9
9
9
9
9
9
9
9
9
9
9
9
9
9
9
9
9
9
9
9
9
9
9
9
9
9
9
9
9
9
9
9
9
9
9
9
9
9
9
9
9
9
9
9
9
9
9
9
9
9
9
9
9
9
9
9
9
9
9
9
9
9
9
9
9
9
9
9
9
9
9
9
9
9
9
9
9
9
9
9
9
9
9
9
9
9
9
9
9
9
9
9
9
9
9
9
9
9
9
9
9
9
9
9
9
9
9
9
9
9
9
9
9
9
9
9
9
9
9
9
9
9
9
9
9
9
9
9
9
9
9
9
9
9
9
9
9
9
9
9
9
9
9
9
9
9
9
9
9
9
9
9
9
9
9
9
9
9
9
9
9
9
9
9
9
9
9
9
9
9
9
9
9
9
9
9
9
9
9
9
9
9
9
9
9
9
9
9
9
9
9
9
9
9
9
9
9
9
9
9
9
9
9
9
9
9
9
9
9
9
9
9
9
9
9
9
9
9
9
9
9
9
9
9
9
9
9
9
9
9
9
9
9
9
9
9
9
9
9
9
9
9
9
9
9
9
9
9
9
9
9
9
9
9
9
9
9
9
9
9
9
9
9
9
9
9
9
9
9
9
9
9
9
9
9
9
9
9
9
9
9
9
9
9
9
9
9
9
9
9
9
9
9
9
9
9
9
9
9
9
9
9
9
9
9
9
9
9
9
9
9
9
9
9
9
9
9
9
9
9
9
9
9
9
9
9
9
9
9
9
9
9
9
9
9
9
9
9
9
9
9
9
9
9
9
9
9
9
9
9
9
9
9
9
9
9
9
9
9
9
9
9
9
9
9
9
9
9
9
9
9
9
9
9
9
9
9
9
9
9
9
9
9
9
9
9
9
9
9
9
9
9
9
9
9
9
9
9
9
9
9
9
9
9
9
9
9
9
9
9
9
9
9
9
9
9
9
9
9
9
9
9
9
9
9
9
9
9
9
9
9
9
9
9
9
9
9
9
9
9
9
9
9
9
9
9
9
9
9
9
9
9
9
9
9
9
9
9
9
9
9
9
9
9
9
9
9
9
9
9
9
9
9
9
9
9
9
9
9
9
9
9
9
9
9
9
9
9
9
9
9
9
9
9
9
9
9
9
9
9
9
9
9
9
9
9
9
9
9
9
9
9
9
9
9
9
9
9
9
9
9
9
9
9
9
9
9
9
9
9
9
9
9
9
9
9
9
9
9
9
9
9
9
9
9
9
9
9
9
9
9
9
9
9
9
9
9
9
9
9
9
9
9
9
9
9
9
9
9
9
9
9
9
9
9
9
9
9
9
9
9
9
9
9
9
9
9
9
9
9
9
9
9
9
9
9
9
9
9
9
9
9
9
9
9
9
9
9
9
9
9
9
9
9
9
9
9
9
9
9
9
9
9
9
9
9
9
9
9
9
9
9
9
9
9
9
9
9
9
9
9
9
9
9
9
9
9
9
9
9
9
9
9
9
9
9
9
9
9
9
9
9
9
9
9
9
9
9
9
9
9
9
9
9
9
9
9
9
9
9
9
9
9
9
9
9
9
9
9
9
9
9
9
9
9
9
9
9
9
9
9
9
9
9
9
9
9
9
9
9
9
9
9
9
9
9
9
9
9
9
9
9
9
9
9
9
9
9
9
9
9
9
9
9
9
9
9
9
9
9
9
9
9
9
9
9
9
9
9
9
9
9
9
9
9
9
9
9
9
9
9
9
9
9
9
9
9
9
9
9
9
9
9
9
9
9
9
9
9
9
9
9
9
9
9
9
9
9
9
9
9
9
9
9
9
9
9
9
9
9
9
9
9
9
9
9
9
9
9
9
9
9
9
9
9
9
9
9
9
9
9
9
9
9
9
9
9
9
9
9
9
9
9
9
9
9
9
9
9
9
9
9
9
9
9
9
9
9
9
9
9
9
9
9
9
9
9
9
9
9
9
9
9
9
9
9
9
9
9
9
9
9
9
9
9
9
9
9
9
9
9
9
9
9
9
9
9
9
9
9
9
9
9
9
9
9
9
9
9
9
9
9
9
9
9
9
9
9
9
9
9
9
9
9
9
9
9
9
9
9
9
9
9
9
9
9
9
9
9
9
9
9
9
9
9
9
9
9
9
9
9
9
9
9
9
9
9
9
9
9
9
9
9
9
9
9
9
9
9
9
9
9
9
9
9
9
9
9
9
9
9
9
9
9
9
9
9
9
9
9
9
9
9
9
9
9
9
9
9
9
9
9
9
9
9
9
9
9
9
9
9
9
9
9
9
9
9
9
9
9
9
9
9
9
9
9
9
9
9
9
9
9
9
9
9
9
9
9
9
9
9
9
9
9
9
9
9
9
9
9
9
9
9
9
9
9
9
9
9
9
9
9
9
9
9
9
9
9
9
9
9
9
9
9
9
9
9
9
9
9
9
9
9
9
9
9
9
9
9
9
9
9
9
9
9
9
9
9
9
9
9
9
9
9
9
9
9
9
9
9
9
9
9
9
9
9
9
9
9
9
9
9
9
9
9
9
9
9
9
9
9
9
9
9
9
9
9
9
9
9
9
9
9
9
9
9
9
9
9
9
9
9
9
9
9
9
9
9
9
9
9
9
9
9
9
9
9
9
9
9
9
9
9
9
9
9
9
9
9
9
9
9
9
9
9
9
9
9
9
9
9
9
9
9
9
9
9
9
9
9
9
9
9
9
9
9
9
9
9
9
9
9
9
9
9
9
9
9
9
9
9
9
9
9
9
9
9
9
9
9
9
9
9
9
9
9
9
9
9
9
9
9
9
9
9
9
9
9
9
9
9
9
9
9
9
9
9
9
9
9
9
9
9
9
9
9
9
9
9
9
9
9
9
9
9
9
9
9
9
9
9
9
9
9
9
9
9
9
9
9
9
9
9
9
9
9
9
9
9
9
9
9
9
9
9
9
9
9
9
9
9
9
9
9
9
9
9
9
9
9
9
9
9
9
9
9
9
9
9
9
9
9
9
9
9
9
9
9
9
9
9
9
9
9
9
9
9
9
9
9
9
9
9
9
9
9
9
9
9
9
9
9
9
9
9
9
9
9
9
9
9
9
9
9
9
9
9
9
9
9
9
9
9
9
9
9
9
9
9
9
9
9
9
9
9
9
9
9
9
9
9
9
9
9
9
9
9
9
9
9
9
9
9
9
9
9
9
9
9
9
9
9
9
9
9
9
9
9
9
9
9
9
9
9
9
9
9
9
9
9
9
9
9
9
9
9
9
9
9
9
9
9
9
9
9
9
9
9
9
9
9
9
9
9
9
9
9
9
9
9
9
9
9
9
9
9
9
9
9
9
9
9
9
9
9
9
9
9
9
9
9
9
9
9
9
9
9
9
9
9
9
9
9
9
9
9
9
9
9
9
9
9
9
9
9
9
9
9
9
9
9
9
9
9
9
9
9
9
9
9
9
9
9
9
9
9
9
9
9
9
9
9
9
9
9
9
9
9
9
9
9
9
9
9
9
9
9
9
9
9
9
9
9
9
9
9
9
9
9
9
9
9
9
9
9
9
9
9
9
9
9
9
9
9
9
9
9
9
9
9
9
9
9
9
9
9
9
9
9
9
9
9
9
9
9
9
9
9
9
9
9
9
9
9
9
9
9
9
9
9
9
9
9
9
9
9
9
9
9
9
9
9
9
9
9
9
9
9
9
9
9
9
9
9
9
9
9
9
9
9
9
9
9
9
9
9
9
9
9
9
9
9
9
9
9
9
9
9
9
9
9
9
9
9
9
9
9
9
9
9
9
9
9
9
9
9
9
9
9
9
9
9
9
9
9
9
9
9
9
9
9
9
9
9
9
9
9
9
9
9
9
9
9
9
9
9
9
9
9
9
9
9
9
9
9
9
9
9
9
9
9
9
9
9
9
9
9
9
9
9
9
9
9
9
9
9
9
9
9
9
9
9
9
9
9
9
9
9
9
9
9
9
9
9
9
9
9
9
9
9
9
9
9
9
9
9
9
9
9
9
9
9
9
9
9
9
9
9
9
9
9
9
9
9
9
9
9
9
9
9
9
9
9
9
9
9
9
9
9
9
9
9
9
9
9
9
9
9
9
9
9
9
9
9
9
9
9
9
9
9
9
9
9
9
9
9
9
9
9
9
9
9
9
9
9
9
9
9
9
9
9
9
9
9
9
9
9
9
9
9
9
9
9
9
9
9
9
9
9
9
9
9
9
9
9
9
9
9
9
9
9
9
9
9
9
9
9
9
9
9
9
9
9
9
9
9
9
9
9
9
9
9
9
9
9
9
9
9
9
9
9
9
9
9
9
9
9
9
9
9
9
9
9
9
9
9
9
9
9
9
9
9
9
9
9
9
9
9
9
9
9
9
9
9
9
9
9
9
9
9
9
9
9
9
9
9
9
9
9
9
9
9
9
9
9
9
9
9
9
9
9
9
9
9
9
9
9
9
9
9
9
9
9
9
9
9
9
9
9
9
9
9
9
9
9
9
9
9
9
9
9
9
9
9
9
9
9
9
9
9
9
9
9
9
9
9
9
9
9
9
9
9
9
9
9
9
9
9
9
9
9
9
9
9
9
9
9
9
9
9
9
9
9
9
9
9
9
9
9
9
9
9
9
9
9
9
9
9
9
9
9
9
9
9
9
9
9
9
9
9
9
9
9
9
9
9
9
9
9
9
9
9
9
9
9
9
9
9
9
9
9
9
9
9
9
9
9
9
9
9
9
9
9
9
9
9
9
9
9
9
9
9
9
9
9
9
9
9
9
9
9
9
9
9
9
9
9
9
9
9
9
9
9
9
9
9
9
9
9
9
9
9
9
9
9
9
9
9
9
9
9
9
9
9
9
9
9
9
9
9
9
9
9
9
9
9
9
9
9
9
9
9
9
9
9
9
9
9
9
9
9
9
9
9
9
9
9
9
9
9
9
9
9
9
9
9
9
9
9
9
9
9
9
9
9
9
9
9
9
9
9
9
9
9
9
9
9
9
9
9
9
9
9
9
9
9
9
9
9
9
9
9
9
9
9
9
9
9
9
9
9
9
9
9
9
9
9
9
9
9
9
9
9
9
9
9
9
9
9
9
9
9
9
9
9
9
9
9
9
9
9
9
9
9
9
9
9
9
9
9
9
9
9
9
9
9
9
9
9
9
9
9
9
9
9
9
9
9
9
9
9
9
9
9
9
9
9
9
9
9
9
9
9
9
9
9
9
9
9
9
9
9
9
9
9
9
9
9
9
9
9
9
9
9
9
9
9
9
9
9
9
9
9
9
9
9
9
9
9
9
9
9
9
9
9
9
9
9
9
9
9
9
9
9
9
9
9
9
9
9
9
9
9
9
9
9
9
9
9
9
9
9
9
9
9
9
9
9
9
9
9
9
9
9
9
9
9
9
9
9
9
9
9
9
9
9
9
9
9
9
9
9
9
9
9
9
9
9
9
9
9
9
9
9
9
9
9
9
9
9
9
9
9
9
9
9
9
9
9
9
9
9
9
9
9
9
9
9
9
9
9
9
9
9
9
9
9
9
9
9
9
9
9
9
9
9
9
9
9
9
9
POINT_DATA 4225
VECTORS Displacement float
0 0 0
0 0 0
0 0 0
0 0 0
0 0 0
0 0 0
0 0 0
0 0 0
0 0 0
0 0 0
0 0 0
0 0 0
0 0 0
0 0 0
0 0 0
0 0 0
0 0 0
0 0 0
0 0 0
0 0 0
0 0 0
0 0 0
0 0 0
0 0 0
0 0 0
0 0 0
0 0 0
0 0 0
0 0 0
0 0 0
0 0 0
0 0 0
0 0 0
0 0 0
0 0 0
0 0 0
0 0 0
0 0 0
0 0 0
0 0 0
0 0 0
0 0 0
0 0 0
0 0 0
0 0 0
0 0 0
0 0 0
0 0 0
0 0 0
0 0 0
0 0 0
0 0 0
0 0 0
0 0 0
0 0 0
0 0 0
0 0 0
0 0 0
0 0 0
0 0 0
0 0 0
0 0 0
0 0 0
0 0 0
0 0 0
0 0 0
0 0 -3.35372e-09
0 0 -1.71196e-08
0 0 -4.43825e-08
0 0 -8.34097e-08
0 0 -1.31868e-07
0 0 -1.87554e-07
0 0 -2.48559e-07
0 0 -3.13272e-07
0 0 -3.80349e-07
0 0 -4.48675e-07
0 0 -5.17319e-07
0 0 -5.8551e-07
0 0 -6.52606e-07
0 0 -7.18071e-07
0 0 -7.81463e-07
0 0 -8.42412e-07
0 0 -9.00611e-07
0 0 -9.55808e-07
0 0 -1.00779e-06
0 0 -1.05639e-06
0 0 -1.10146e-06
0 0 -1.14289e-06
0 0 -1.18059e-06
0 0 -1.21447e-06
0 0 -1.24448e-06
0 0 -1.27057e-06
0 0 -1.2927e-06
0 0 -1.31084e-06
0 0 -1.32497e-06
0 0 -1.33507e-06
0 0 -1.34114e-06
0 0 -1.34316e-06
0 0 -1.34114e-06
0 0 -1.33507e-06
0 0 -1.32497e-06
0 0 -1.31084e-06
0 0 -1.2927e-06
0 0 -1.27057e-06
0 0 -1.24448e-06
0 0 -1.21447e-06
0 0 -1.18059e-06
0 0 -1.14289e-06
0 0 -1.10146e-06
0 0 -1.05639e-06
0 0 -1.00779e-06
0 0 -9.55808e-07
0 0 -9.00611e-07
0 0 -8.42412e-07
0 0 -7.81463e-07
0 0 -7.18071e-07
0 0 -6.52606e-07
0 0 -5.8551e-07
0 0 -5.17319e-07
0 0 -4.48675e-07
0 0 -3.80349e-07
0 0 -3.13272e-07
0 0 -2.48559e-07
0 0 -1.87554e-07
0 0 -1.31868e-07
0 0 -8.34097e-08
0 0 -4.43825e-08
0 0 -1.71196e-08
0 0 -3.35372e-09
0 0 0
0 0 0
0 0 -1.71196e-08
0 0 -7.62288e-08
0 0 -1.83449e-07
0 0 -3.33564e-07
0 0 -5.18762e-07
0 0 -7.31327e-07
0 0 -9.64354e-07
0 0 -1.21189e-06
0 0 -1.46889e-06
0 0 -1.7311e-06
0 0 -1.99494e-06
0 0 -2.25742e-06
0 0 -2.51603e-06
0 0 -2.76867e-06
0 0 -3.01358e-06
0 0 -3.24929e-06
0 0 -3.47457e-06
0 0 -3.68841e-06
0 0 -3.88995e-06
0 0 -4.0785e-06
0 0 -4.25347e-06
0 0 -4.41439e-06
0 0 -4.56086e-06
0 0 -4.69258e-06
0 0 -4.80929e-06
0 0 -4.91078e-06
0 0 -4.9969e-06
0 0 -5.06751e-06
0 0 -5.12252e-06
0 0 -5.16186e-06
0 0 -5.18548e-06
0 0 -5.19336e-06
0 0 -5.18548e-06
0 0 -5.16186e-06
0 0 -5.12252e-06
0 0 -5.06751e-06
0 0 -4.9969e-06
0 0 -4.91078e-06
0 0 -4.80929e-06
0 0 -4.69258e-06
0 0 -4.56086e-06
0 0 -4.41439e-06
0 0 -4.25347e-06
0 0 -4.0785e-06
0 0 -3.88995e-06
0 0 -3.68841e-06
0 0 -3.47457e-06
0 0 -3.24929e-06
0 0 -3.01358e-06
0 0 -2.76867e-06
0 0 -2.51603e-06
0 0 -2.25742e-06
0 0 -1.99494e-06
0 0 -1.7311e-06
0 0 -1.46889e-06
0 0 -1.21189e-06
0 0 -9.64354e-07
0 0 -7.31327e-07
0 0 -5.18762e-07
0 0 -3.33564e-07
0 0 -1.83449e-07
0 0 -7.62288e-08
0 0 -1.71196e-08
0 0 0
0 0 0
0 0 -4.43825e-08
0 0 -1.83449e-07
0 0 -4.19692e-07
0 0 -7.42862e-07
0 0 -1.13837e-06
0 0 -1.59129e-06
0 0 -2.08788e-06
0 0 -2.61598e-06
0 0 -3.16512e-06
0 0 -3.72633e-06
0 0 -4.29197e-06
0 0 -4.8556e-06
0 0 -5.41174e-06
0 0 -5.95579e-06
0 0 -6.48387e-06
0 0 -6.9927e-06
0 0 -7.47954e-06
0 0 -7.94209e-06
0 0 -8.37842e-06
0 0 -8.78695e-06
0 0 -9.16632e-06
0 0 -9.51546e-06
0 0 -9.83344e-06
0 0 -1.01195e-05
0 0 -1.03731e-05
0 0 -1.05937e-05
0 0 -1.0781e-05
0 0 -1.09346e-05
0 0 -1.10542e-05
0 0 -1.11398e-05
0 0 -1.11912e-05
0 0 -1.12084e-05
0 0 -1.11912e-05
0 0 -1.11398e-05
0 0 -1.10542e-05
0 0 -1.09346e-05
0 0 -1.0781e-05
0 0 -1.05937e-05
0 0 -1.03731e-05
0 0 -1.01195e-05
0 0 -9.83344e-06
0 0 -9.51546e-06
0 0 -9.16632e-06
0 0 -8.78695e-06
0 0 -8.37842e-06
0 0 -7.94209e-06
0 0 -7.47954e-06
0 0 -6.9927e-06
0 0 -6.48387e-06
0 0 -5.95579e-06
0 0 -5.41174e-06
0 0 -4.8556e-06
0 0 -4.29197e-06
0 0 -3.72633e-06
0 0 -3.16512e-06
0 0 -2.61598e-06
0 0 -2.08788e-06
0 0 -1.59129e-06
0 0 -1.13837e-06
0 0 -7.42862e-07
0 0 -4.19692e-07
0 0 -1.83449e-07
0 0 -4.43825e-08
0 0 0
0 0 0
0 0 -8.34097e-08
0 0 -3.33564e-07
0 0 -7.42862e-07
0 0 -1.29293e-06
0 0 -1.96104e-06
0 0 -2.72398e-06
0 0 -3.56004e-06
0 0 -4.44972e-06
0 0 -5.37588e-06
0 0 -6.32368e-06
0 0 -7.28035e-06
0 0 -8.23495e-06
0 0 -9.17817e-06
0 0 -1.01021e-05
0 0 -1.09999e-05
0 0 -1.1866e-05
0 0 -1.26955e-05
0 0 -1.34844e-05
0 0 -1.42291e-05
0 0 -1.4927e-05
0 0 -1.55755e-05
0 0 -1.61727e-05
0 0 -1.67169e-05
0 0 -1.72068e-05
0 0 -1.76413e-05
0 0 -1.80193e-05
0 0 -1.83403e-05
0 0 -1.86037e-05
0 0 -1.88089e-05
0 0 -1.89557e-05
0 0 -1.90439e-05
0 0 -1.90733e-05
0 0 -1.90439e-05
0 0 -1.89557e-05
0 0 -1.88089e-05
0 0 -1.86037e-05
0 0 -1.83403e-05
0 0 -1.80193e-05
0 0 -1.76413e-05
0 0 -1.72068e-05
0 0 -1.67169e-05
0 0 -1.61727e-05
0 0 -1.55755e-05
0 0 -1.4927e-05
0 0 -1.42291e-05
0 0 -1.34844e-05
0 0 -1.26955e-05
0 0 -1.1866e-05
0 0 -1.09999e-05
0 0 -1.01021e-05
0 0 -9.17817e-06
0 0 -8.23495e-06
0 0 -7.28035e-06
0 0 -6.32368e-06
0 0 -5.37588e-06
0 0 -4.44972e-06
0 0 -3.56004e-06
0 0 -2.72398e-06
0 0 -1.96104e-06
0 0 -1.29293e-06
0 0 -7.42862e-07
0 0 -3.33564e-07
0 0 -8.34097e-08
0 0 0
0 0 0
0 0 -1.31868e-07
0 0 -5.18762e-07
0 0 -1.13837e-06
0 0 -1.96104e-06
0 0 -2.95412e-06
0 0 -4.08512e-06
0 0 -5.32354e-06
0 0 -6.64168e-06
0 0 -8.01496e-06
0 0 -9.42181e-06
0 0 -1.08435e-05
0 0 -1.22639e-05
0 0 -1.3669e-05
0 0 -1.50469e-05
0 0 -1.63875e-05
0 0 -1.76819e-05
0 0 -1.89228e-05
0 0 -2.0104e-05
0 0 -2.12201e-05
0 0 -2.22666e-05
0 0 -2.32398e-05
0 0 -2.41365e-05
0 0 -2.49541e-05
0 0 -2.56905e-05
0 0 -2.63437e-05
0 0 -2.69124e-05
0 0 -2.73954e-05
0 0 -2.77918e-05
0 0 -2.81008e-05
0 0 -2.83218e-05
0 0 -2.84546e-05
0 0 -2.84989e-05
0 0 -2.84546e-05
0 0 -2.83218e-05
0 0 -2.81008e-05
0 0 -2.77918e-05
0 0 -2.73954e-05
0 0 -2.69124e-05
0 0 -2.63437e-05
0 0 -2.56905e-05
0 0 -2.49541e-05
0 0 -2.41365e-05
0 0 -2.32398e-05
0 0 -2.22666e-05
0 0 -2.12201e-05
0 0 -2.0104e-05
0 0 -1.89228e-05
0 0 -1.76819e-05
0 0 -1.63875e-05
0 0 -1.50469e-05
0 0 -1.3669e-05
0 0 -1.22639e-05
0 0 -1.08435e-05
0 0 -9.42181e-06
0 0 -8.01496e-06
0 0 -6.64168e-06
0 0 -5.32354e-06
0 0 -4.08512e-06
0 0 -2.95412e-06
0 0 -1.96104e-06
0 0 -1.13837e-06
0 0 -5.18762e-07
0 0 -1.31868e-07
0 0 0
0 0 0
0 0 -1.87554e-07
0 0 -7.31327e-07
0 0 -1.59129e-06
0 0 -2.72398e-06
0 0 -4.08512e-06
0 0 -5.63184e-06
0 0 -7.32408e-06
0 0 -9.12534e-06
0 0 -1.1003e-05
0 0 -1.29281e-05
0 0 -1.48755e-05
0 0 -1.68231e-05
0 0 -1.87517e-05
0 0 -2.0645e-05
0 0 -2.24887e-05
0 0 -2.42707e-05
0 0 -2.59805e-05
0 0 -2.76093e-05
0 0 -2.91495e-05
0 0 -3.05947e-05
0 0 -3.19395e-05
0 0 -3.31792e-05
0 0 -3.43103e-05
0 0 -3.53293e-05
0 0 -3.62337e-05
0 0 -3.70214e-05
0 0 -3.76905e-05
0 0 -3.82397e-05
0 0 -3.8668e-05
0 0 -3.89744e-05
0 0 -3.91585e-05
0 0 -3.92199e-05
0 0 -3.91585e-05
0 0 -3.89744e-05
0 0 -3.8668e-05
0 0 -3.82397e-05
0 0 -3.76905e-05
0 0 -3.70214e-05
0 0 -3.62337e-05
0 0 -3.53293e-05
0 0 -3.43103e-05
0 0 -3.31792e-05
0 0 -3.19395e-05
0 0 -3.05947e-05
0 0 -2.91495e-05
0 0 -2.76093e-05
0 0 -2.59805e-05
0 0 -2.42707e-05
0 0 -2.24887e-05
0 0 -2.0645e-05
0 0 -1.87517e-05
0 0 -1.68231e-05
0 0 -1.48755e-05
0 0 -1.29281e-05
0 0 -1.1003e-05
0 0 -9.12534e-06
0 0 -7.32408e-06
0 0 -5.63184e-06
0 0 -4.08512e-06
0 0 -2.72398e-06
0 0 -1.59129e-06
0 0 -7.31327e-07
0 0 -1.87554e-07
0 0 0
0 0 0
0 0 -2.48559e-07
0 0 -9.64354e-07
0 0 -2.08788e-06
0 0 -3.56004e-06
0 0 -5.32354e-06
0 0 -7.32408e-06
0 0 -9.51135e-06
0 0 -1.18395e-05
0 0 -1.42674e-05
0 0 -1.67584e-05
0 0 -1.92801e-05
0 0 -2.18044e-05
0 0 -2.43064e-05
0 0 -2.67648e-05
0 0 -2.91609e-05
0 0 -3.14788e-05
0 0 -3.37045e-05
0 0 -3.58263e-05
0 0 -3.78342e-05
0 0 -3.97193e-05
0 0 -4.14745e-05
0 0 -4.30936e-05
0 0 -4.45713e-05
0 0 -4.59032e-05
0 0 -4.70858e-05
0 0 -4.81161e-05
0 0 -4.89916e-05
0 0 -4.97104e-05
0 0 -5.02709e-05
0 0 -5.06721e-05
0 0 -5.09131e-05
0 0 -5.09935e-05
0 0 -5.09131e-05
0 0 -5.06721e-05
0 0 -5.02709e-05
0 0 -4.97104e-05
0 0 -4.89916e-05
0 0 -4.81161e-05
0 0 -4.70858e-05
0 0 -4.59032e-05
0 0 -4.45713e-05
0 0 -4.30936e-05
0 0 -4.14745e-05
0 0 -3.97193e-05
0 0 -3.78342e-05
0 0 -3.58263e-05
0 0 -3.37045e-05
0 0 -3.14788e-05
0 0 -2.91609e-05
0 0 -2.67648e-05
0 0 -2.43064e-05
0 0 -2.18044e-05
0 0 -1.92801e-05
0 0 -1.67584e-05
0 0 -1.42674e-05
0 0 -1.18395e-05
0 0 -9.51135e-06
0 0 -7.32408e-06
0 0 -5.32354e-06
0 0 -3.56004e-06
0 0 -2.08788e-06
0 0 -9.64354e-07
0 0 -2.48559e-07
0 0 0
0 0 0
0 0 -3.13272e-07
0 0 -1.21189e-06
0 0 -2.61598e-06
0 0 -4.44972e-06
0 0 -6.64168e-06
0 0 -9.12534e-06
0 0 -1.18395e-05
0 0 -1.47285e-05
0 0 -1.77424e-05
0 0 -2.08362e-05
0 0 -2.39705e-05
0 0 -2.71103e-05
0 0 -3.02249e-05
0 0 -3.32876e-05
0 0 -3.62751e-05
0 0 -3.91672e-05
0 0 -4.19464e-05
0 0 -4.45976e-05
0 0 -4.7108e-05
0 0 -4.94664e-05
0 0 -5.16635e-05
0 0 -5.36911e-05
0 0 -5.55425e-05
0 0 -5.7212e-05
0 0 -5.86948e-05
0 0 -5.9987e-05
0 0 -6.10853e-05
0 0 -6.19873e-05
0 0 -6.26908e-05
0 0 -6.31943e-05
0 0 -6.34969e-05
0 0 -6.35978e-05
0 0 -6.34969e-05
0 0 -6.31943e-05
0 0 -6.26908e-05
0 0 -6.19873e-05
0 0 -6.10853e-05
0 0 -5.9987e-05
0 0 -5.86948e-05
0 0 -5.7212e-05
0 0 -5.55425e-05
0 0 -5.36911e-05
0 0 -5.16635e-05
0 0 -4.94664e-05
0 0 -4.7108e-05
0 0 -4.45976e-05
0 0 -4.19464e-05
0 0 -3.91672e-05
0 0 -3.62751e-05
0 0 -3.32876e-05
0 0 -3.02249e-05
0 0 -2.71103e-05
0 0 -2.39705e-05
0 0 -2.08362e-05
0 0 -1.77424e-05
0 0 -1.47285e-05
0 0 -1.18395e-05
0 0 -9.12534e-06
0 0 -6.64168e-06
0 0 -4.44972e-06
0 0 -2.61598e-06
0 0 -1.21189e-06
0 0 -3.13272e-07
0 0 0
0 0 0
0 0 -3.80349e-07
0 0 -1.46889e-06
0 0 -3.16512e-06
0 0 -5.37588e-06
0 0 -8.01496e-06
0 0 -1.1003e-05
0 0 -1.42674e-05
0 0 -1.77424e-05
0 0 -2.13685e-05
0 0 -2.50929e-05
0 0 -2.88682e-05
0 0 -3.26527e-05
0 0 -3.64094e-05
0 0 -4.01062e-05
0 0 -4.37148e-05
0 0 -4.72105e-05
0 0 -5.0572e-05
0 0 -5.37807e-05
0 0 -5.68207e-05
0 0 -5.96782e-05
0 0 -6.23415e-05
0 0 -6.48006e-05
0 0 -6.70469e-05
0 0 -6.90733e-05
0 0 -7.08736e-05
0 0 -7.2443e-05
0 0 -7.37773e-05
0 0 -7.48732e-05
0 0 -7.57281e-05
0 0 -7.63402e-05
0 0 -7.67079e-05
0 0 -7.68306e-05
0 0 -7.67079e-05
0 0 -7.63402e-05
0 0 -7.57281e-05
0 0 -7.48732e-05
0 0 -7.37773e-05
0 0 -7.2443e-05
0 0 -7.08736e-05
0 0 -6.90733e-05
0 0 -6.70469e-05
0 0 -6.48006e-05
0 0 -6.23415e-05
0 0 -5.96782e-05
0 0 -5.68207e-05
0 0 -5.37807e-05
0 0 -5.0572e-05
0 0 -4.72105e-05
0 0 -4.37148e-05
0 0 -4.01062e-05
0 0 -3.64094e-05
0 0 -3.26527e-05
0 0 -2.88682e-05
0 0 -2.50929e-05
0 0 -2.13685e-05
0 0 -1.77424e-05
0 0 -1.42674e-05
0 0 -1.1003e-05
0 0 -8.01496e-06
0 0 -5.37588e-06
0 0 -3.16512e-06
0 0 -1.46889e-06
0 0 -3.80349e-07
0 0 0
0 0 0
0 0 -4.48675e-07
0 0 -1.7311e-06
0 0 -3.72633e-06
0 0 -6.32368e-06
0 0 -9.42181e-06
0 0 -1.29281e-05
0 0 -1.67584e-05
0 0 -2.08362e-05
0 0 -2.50929e-05
0 0 -2.94668e-05
0 0 -3.3903e-05
0 0 -3.83525e-05
0 0 -4.27723e-05
0 0 -4.71244e-05
0 0 -5.13752e-05
0 0 -5.54957e-05
0 0 -5.94603e-05
0 0 -6.32469e-05
0 0 -6.68363e-05
0 0 -7.02119e-05
0 0 -7.33596e-05
0 0 -7.62671e-05
0 0 -7.89241e-05
0 0 -8.13218e-05
0 0 -8.34527e-05
0 0 -8.53107e-05
0 0 -8.68908e-05
0 0 -8.81888e-05
0 0 -8.92015e-05
0 0 -8.99266e-05
0 0 -9.03623e-05
0 0 -9.05076e-05
0 0 -9.03623e-05
0 0 -8.99266e-05
0 0 -8.92015e-05
0 0 -8.81888e-05
0 0 -8.68908e-05
0 0 -8.53107e-05
0 0 -8.34527e-05
0 0 -8.13218e-05
0 0 -7.89241e-05
0 0 -7.62671e-05
0 0 -7.33596e-05
0 0 -7.02119e-05
0 0 -6.68363e-05
0 0 -6.32469e-05
0 0 -5.94603e-05
0 0 -5.54957e-05
0 0 -5.13752e-05
0 0 -4.71244e-05
0 0 -4.27723e-05
0 0 -3.83525e-05
0 0 -3.3903e-05
0 0 -2.94668e-05
0 0 -2.50929e-05
0 0 -2.08362e-05
0 0 -1.67584e-05
0 0 -1.29281e-05
0 0 -9.42181e-06
0 0 -6.32368e-06
0 0 -3.72633e-06
0 0 -1.7311e-06
0 0 -4.48675e-07
0 0 0
0 0 0
0 0 -5.17319e-07
0 0 -1.99494e-06
0 0 -4.29197e-06
0 0 -7.28035e-06
0 0 -1.08435e-05
0 0 -1.48755e-05
0 0 -1.92801e-05
0 0 -2.39705e-05
0 0 -2.88682e-05
0 0 -3.3903e-05
0 0 -3.90119e-05
0 0 -4.41391e-05
0 0 -4.9235e-05
0 0 -5.42555e-05
0 0 -5.91622e-05
0 0 -6.3921e-05
0 0 -6.85023e-05
0 0 -7.28802e-05
0 0 -7.70322e-05
0 0 -8.09387e-05
0 0 -8.45829e-05
0 0 -8.79504e-05
0 0 -9.10288e-05
0 0 -9.38077e-05
0 0 -9.62781e-05
0 0 -9.84327e-05
0 0 -0.000100265
0 0 -0.000101771
0 0 -0.000102946
0 0 -0.000103787
0 0 -0.000104293
0 0 -0.000104462
0 0 -0.000104293
0 0 -0.000103787
0 0 -0.000102946
0 0 -0.000101771
0 0 -0.000100265
0 0 -9.84327e-05
0 0 -9.62781e-05
0 0 -9.38077e-05
0 0 -9.10288e-05
0 0 -8.79504e-05
0 0 -8.45829e-05
0 0 -8.09387e-05
0 0 -7.70322e-05
0 0 -7.28802e-05
0 0 -6.85023e-05
0 0 -6.3921e-05
0 0 -5.91622e-05
0 0 -5.42555e-05
0 0 -4.9235e-05
0 0 -4.41391e-05
0 0 -3.90119e-05
0 0 -3.3903e-05
0 0 -2.88682e-05
0 0 -2.39705e-05
0 0 -1.92801e-05
0 0 -1.48755e-05
0 0 -1.08435e-05
0 0 -7.28035e-06
0 0 -4.29197e-06
0 0 -1.99494e-06
0 0 -5.17319e-07
0 0 0
0 0 0
0 0 -5.8551e-07
0 0 -2.25742e-06
0 0 -4.8556e-06
0 0 -8.23495e-06
0 0 -1.22639e-05
0 0 -1.68231e-05
0 0 -2.18044e-05
0 0 -2.71103e-05
0 0 -3.26527e-05
0 0 -3.83525e-05
0 0 -4.41391e-05
0 0 -4.99493e-05
0 0 -5.57269e-05
0 0 -6.14223e-05
0 0 -6.69913e-05
0 0 -7.23952e-05
0 0 -7.76002e-05
0 0 -8.25764e-05
0 0 -8.72979e-05
0 0 -9.17422e-05
0 0 -9.58897e-05
0 0 -9.97237e-05
0 0 -0.00010323
0 0 -0.000106395
0 0 -0.000109211
0 0 -0.000111666
0 0 -0.000113756
0 0 -0.000115473
0 0 -0.000116813
0 0 -0.000117772
0 0 -0.000118349
0 0 -0.000118541
0 0 -0.000118349
0 0 -0.000117772
0 0 -0.000116813
0 0 -0.000115473
0 0 -0.000113756
0 0 -0.000111666
0 0 -0.000109211
0 0 -0.000106395
0 0 -0.00010323
0 0 -9.97237e-05
0 0 -9.58897e-05
0 0 -9.17422e-05
0 0 -8.72979e-05
0 0 -8.25764e-05
0 0 -7.76002e-05
0 0 -7.23952e-05
0 0 -6.69913e-05
0 0 -6.14223e-05
0 0 -5.57269e-05
0 0 -4.99493e-05
0 0 -4.41391e-05
0 0 -3.83525e-05
0 0 -3.26527e-05
0 0 -2.71103e-05
0 0 -2.18044e-05
0 0 -1.68231e-05
0 0 -1.22639e-05
0 0 -8.23495e-06
0 0 -4.8556e-06
0 0 -2.25742e-06
0 0 -5.8551e-07
0 0 0
0 0 0
0 0 -6.52606e-07
0 0 -2.51603e-06
0 0 -5.41174e-06
0 0 -9.17817e-06
0 0 -1.3669e-05
0 0 -1.87517e-05
0 0 -2.43064e-05
0 0 -3.02249e-05
0 0 -3.64094e-05
0 0 -4.27723e-05
0 0 -4.9235e-05
0 0 -5.57269e-05
0 0 -6.21857e-05
0 0 -6.85554e-05
0 0 -7.47869e-05
0 0 -8.08366e-05
0 0 -8.66661e-05
0 0 -9.22418e-05
0 0 -9.75343e-05
0 0 -0.000102518
0 0 -0.000107171
0 0 -0.000111473
0 0 -0.000115408
0 0 -0.000118963
0 0 -0.000122125
0 0 -0.000124883
0 0 -0.000127231
0 0 -0.00012916
0 0 -0.000130666
0 0 -0.000131744
0 0 -0.000132392
0 0 -0.000132609
0 0 -0.000132392
0 0 -0.000131744
0 0 -0.000130666
0 0 -0.00012916
0 0 -0.000127231
0 0 -0.000124883
0 0 -0.000122125
0 0 -0.000118963
0 0 -0.000115408
0 0 -0.000111473
0 0 -0.000107171
0 0 -0.000102518
0 0 -9.75343e-05
0 0 -9.22418e-05
0 0 -8.66661e-05
0 0 -8.08366e-05
0 0 -7.47869e-05
0 0 -6.85554e-05
0 0 -6.21857e-05
0 0 -5.57269e-05
0 0 -4.9235e-05
0 0 -4.27723e-05
0 0 -3.64094e-05
0 0 -3.02249e-05
0 0 -2.43064e-05
0 0 -1.87517e-05
0 0 -1.3669e-05
0 0 -9.17817e-06
0 0 -5.41174e-06
0 0 -2.51603e-06
0 0 -6.52606e-07
0 0 0
0 0 0
0 0 -7.18071e-07
0 0 -2.76867e-06
0 0 -5.95579e-06
0 0 -1.01021e-05
0 0 -1.50469e-05
0 0 -2.0645e-05
0 0 -2.67648e-05
0 0 -3.32876e-05
0 0 -4.01062e-05
0 0 -4.71244e-05
0 0 -5.42555e-05
0 0 -6.14223e-05
0 0 -6.85554e-05
0 0 -7.55935e-05
0 0 -8.24818e-05
0 0 -8.9172e-05
0 0 -9.56214e-05
0 0 -0.000101792
0 0 -0.000107652
0 0 -0.000113172
0 0 -0.000118327
0 0 -0.000123095
0 0 -0.000127458
0 0 -0.0001314
0 0 -0.000134907
0 0 -0.000137967
0 0 -0.000140572
0 0 -0.000142713
0 0 -0.000144384
0 0 -0.000145581
0 0 -0.0001463
0 0 -0.00014654
0 0 -0.0001463
0 0 -0.000145581
0 0 -0.000144384
0 0 -0.000142713
0 0 -0.000140572
0 0 -0.000137967
0 0 -0.000134907
0 0 -0.0001314
0 0 -0.000127458
0 0 -0.000123095
0 0 -0.000118327
0 0 -0.000113172
0 0 -0.000107652
0 0 -0.000101792
0 0 -9.56214e-05
0 0 -8.9172e-05
0 0 -8.24818e-05
0 0 -7.55935e-05
0 0 -6.85554e-05
0 0 -6.14223e-05
0 0 -5.42555e-05
0 0 -4.71244e-05
0 0 -4.01062e-05
0 0 -3.32876e-05
0 0 -2.67648e-05
0 0 -2.0645e-05
0 0 -1.50469e-05
0 0 -1.01021e-05
0 0 -5.95579e-06
0 0 -2.76867e-06
0 0 -7.18071e-07
0 0 0
0 0 0
0 0 -7.81463e-07
0 0 -3.01358e-06
0 0 -6.48387e-06
0 0 -1.09999e-05
0 0 -1.63875e-05
0 0 -2.24887e-05
0 0 -2.91609e-05
0 0 -3.62751e-05
0 0 -4.37148e-05
0 0 -5.13752e-05
0 0 -5.91622e-05
0 0 -6.69913e-05
0 0 -7.47869e-05
0 0 -8.24818e-05
0 0 -9.0016e-05
0 0 -9.73364e-05
0 0 -0.000104396
0 0 -0.000111154
0 0 -0.000117572
0 0 -0.000123621
0 0 -0.000129271
0 0 -0.000134499
0 0 -0.000139284
0 0 -0.000143607
0 0 -0.000147455
0 0 -0.000150813
0 0 -0.000153672
0 0 -0.000156022
0 0 -0.000157857
0 0 -0.000159171
0 0 -0.000159961
0 0 -0.000160225
0 0 -0.000159961
0 0 -0.000159171
0 0 -0.000157857
0 0 -0.000156022
0 0 -0.000153672
0 0 -0.000150813
0 0 -0.000147455
0 0 -0.000143607
0 0 -0.000139284
0 0 -0.000134499
0 0 -0.000129271
0 0 -0.000123621
0 0 -0.000117572
0 0 -0.000111154
0 0 -0.000104396
0 0 -9.73364e-05
0 0 -9.0016e-05
0 0 -8.24818e-05
0 0 -7.47869e-05
0 0 -6.69913e-05
0 0 -5.91622e-05
0 0 -5.13752e-05
0 0 -4.37148e-05
0 0 -3.62751e-05
0 0 -2.91609e-05
0 0 -2.24887e-05
0 0 -1.63875e-05
0 0 -1.09999e-05
0 0 -6.48387e-06
0 0 -3.01358e-06
0 0 -7.81463e-07
0 0 0
0 0 0
0 0 -8.42412e-07
0 0 -3.24929e-06
0 0 -6.9927e-06
0 0 -1.1866e-05
0 0 -1.76819e-05
0 0 -2.42707e-05
0 0 -3.14788e-05
0 0 -3.91672e-05
0 0 -4.72105e-05
0 0 -5.54957e-05
0 0 -6.3921e-05
0 0 -7.23952e-05
0 0 -8.08366e-05
0 0 -8.9172e-05
0 0 -9.73364e-05
0 0 -0.000105272
0 0 -0.000112928
0 0 -0.000120258
0 0 -0.000127223
0 0 -0.000133789
0 0 -0.000139924
0 0 -0.000145601
0 0 -0.000150799
0 0 -0.000155497
0 0 -0.000159678
0 0 -0.000163329
0 0 -0.000166436
0 0 -0.000168991
0 0 -0.000170986
0 0 -0.000172415
0 0 -0.000173274
0 0 -0.000173561
0 0 -0.000173274
0 0 -0.000172415
0 0 -0.000170986
0 0 -0.000168991
0 0 -0.000166436
0 0 -0.000163329
0 0 -0.000159678
0 0 -0.000155497
0 0 -0.000150799
0 0 -0.000145601
0 0 -0.000139924
0 0 -0.000133789
0 0 -0.000127223
0 0 -0.000120258
0 0 -0.000112928
0 0 -0.000105272
0 0 -9.73364e-05
0 0 -8.9172e-05
0 0 -8.08366e-05
0 0 -7.23952e-05
0 0 -6.3921e-05
0 0 -5.54957e-05
0 0 -4.72105e-05
0 0 -3.91672e-05
0 0 -3.14788e-05
0 0 -2.42707e-05
0 0 -1.76819e-05
0 0 -1.1866e-05
0 0 -6.9927e-06
0 0 -3.24929e-06
0 0 -8.42412e-07
0 0 0
0 0 0
0 0 -9.00611e-07
0 0 -3.47457e-06
0 0 -7.47954e-06
0 0 -1.26955e-05
0 0 -1.89228e-05
0 0 -2.59805e-05
0 0 -3.37045e-05
0 0 -4.19464e-05
0 0 -5.0572e-05
0 0 -5.94603e-05
0 0 -6.85023e-05
0 0 -7.76002e-05
0 0 -8.66661e-05
0 0 -9.56214e-05
0 0 -0.000104396
0 0 -0.000112928
0 0 -0.000121161
0 0 -0.000129047
0 0 -0.000136542
0 0 -0.000143609
0 0 -0.000150214
0 0 -0.000156329
0 0 -0.000161928
0 0 -0.000166989
0 0 -0.000171495
0 0 -0.000175429
0 0 -0.000178778
0 0 -0.000181533
0 0 -0.000183684
0 0 -0.000185225
0 0 -0.000186151
0 0 -0.00018646
0 0 -0.000186151
0 0 -0.000185225
0 0 -0.000183684
0 0 -0.000181533
0 0 -0.000178778
0 0 -0.000175429
0 0 -0.000171495
0 0 -0.000166989
0 0 -0.000161928
0 0 -0.000156329
0 0 -0.000150214
0 0 -0.000143609
0 0 -0.000136542
0 0 -0.000129047
0 0 -0.000121161
0 0 -0.000112928
0 0 -0.000104396
0 0 -9.56214e-05
0 0 -8.66661e-05
0 0 -7.76002e-05
0 0 -6.85023e-05
0 0 -5.94603e-05
0 0 -5.0572e-05
0 0 -4.19464e-05
0 0 -3.37045e-05
0 0 -2.59805e-05
0 0 -1.89228e-05
0 0 -1.26955e-05
0 0 -7.47954e-06
0 0 -3.47457e-06
0 0 -9.00611e-07
0 0 0
0 0 0
0 0 -9.55808e-07
0 0 -3.68841e-06
0 0 -7.94209e-06
0 0 -1.34844e-05
0 0 -2.0104e-05
0 0 -2.76093e-05
0 0 -3.58263e-05
0 0 -4.45976e-05
0 0 -5.37807e-05
0 0 -6.32469e-05
0 0 -7.28802e-05
0 0 -8.25764e-05
0 0 -9.22418e-05
0 0 -0.000101792
0 0 -0.000111154
0 0 -0.000120258
0 0 -0.000129047
0 0 -0.000137467
0 0 -0.000145473
0 0 -0.000153023
0 0 -0.000160081
0 0 -0.000166616
0 0 -0.000172602
0 0 -0.000178013
0 0 -0.000182832
0 0 -0.000187039
0 0 -0.000190622
0 0 -0.000193569
0 0 -0.00019587
0 0 -0.000197519
0 0 -0.00019851
0 0 -0.00019884
0 0 -0.00019851
0 0 -0.000197519
0 0 -0.00019587
0 0 -0.000193569
0 0 -0.000190622
0 0 -0.000187039
0 0 -0.000182832
0 0 -0.000178013
0 0 -0.000172602
0 0 -0.000166616
0 0 -0.000160081
0 0 -0.000153023
0 0 -0.000145473
0 0 -0.000137467
0 0 -0.000129047
0 0 -0.000120258
0 0 -0.000111154
0 0 -0.000101792
0 0 -9.22418e-05
0 0 -8.25764e-05
0 0 -7.28802e-05
0 0 -6.32469e-05
0 0 -5.37807e-05
0 0 -4.45976e-05
0 0 -3.58263e-05
0 0 -2.76093e-05
0 0 -2.0104e-05
0 0 -1.34844e-05
0 0 -7.94209e-06
0 0 -3.68841e-06
0 0 -9.55808e-07
0 0 0
0 0 0
0 0 -1.00779e-06
0 0 -3.88995e-06
0 0 -8.37842e-06
0 0 -1.42291e-05
0 0 -2.12201e-05
0 0 -2.91495e-05
0 0 -3.78342e-05
0 0 -4.7108e-05
0 0 -5.68207e-05
0 0 -6.68363e-05
0 0 -7.70322e-05
0 0 -8.72979e-05
0 0 -9.75343e-05
0 0 -0.000107652
0 0 -0.000117572
0 0 -0.000127223
0 0 -0.000136542
0 0 -0.000145473
0 0 -0.000153966
0 0 -0.000161977
0 0 -0.000169468
0 0 -0.000176405
0 0 -0.00018276
0 0 -0.000188507
0 0 -0.000193624
0 0 -0.000198093
0 0 -0.000201899
0 0 -0.00020503
0 0 -0.000207475
0 0 -0.000209227
0 0 -0.00021028
0 0 -0.000210631
0 0 -0.00021028
0 0 -0.000209227
0 0 -0.000207475
0 0 -0.00020503
0 0 -0.000201899
0 0 -0.000198093
0 0 -0.000193624
0 0 -0.000188507
0 0 -0.00018276
0 0 -0.000176405
0 0 -0.000169468
0 0 -0.000161977
0 0 -0.000153966
0 0 -0.000145473
0 0 -0.000136542
0 0 -0.000127223
0 0 -0.000117572
0 0 -0.000107652
0 0 -9.75343e-05
0 0 -8.72979e-05
0 0 -7.70322e-05
0 0 -6.68363e-05
0 0 -5.68207e-05
0 0 -4.7108e-05
0 0 -3.78342e-05
0 0 -2.91495e-05
0 0 -2.12201e-05
0 0 -1.42291e-05
0 0 -8.37842e-06
0 0 -3.88995e-06
0 0 -1.00779e-06
0 0 0
0 0 0
0 0 -1.05639e-06
0 0 -4.0785e-06
0 0 -8.78695e-06
0 0 -1.4927e-05
0 0 -2.22666e-05
0 0 -3.05947e-05
0 0 -3.97193e-05
0 0 -4.94664e-05
0 0 -5.96782e-05
0 0 -7.02119e-05
0 0 -8.09387e-05
0 0 -9.17422e-05
0 0 -0.000102518
0 0 -0.000113172
0 0 -0.000123621
0 0 -0.000133789
0 0 -0.000143609
0 0 -0.000153023
0 0 -0.000161977
0 0 -0.000170425
0 0 -0.000178326
0 0 -0.000185644
0 0 -0.000192349
0 0 -0.000198413
0 0 -0.000203814
0 0 -0.000208532
0 0 -0.00021255
0 0 -0.000215855
0 0 -0.000218436
0 0 -0.000220286
0 0 -0.000221398
0 0 -0.000221769
0 0 -0.000221398
0 0 -0.000220286
0 0 -0.000218436
0 0 -0.000215855
0 0 -0.00021255
0 0 -0.000208532
0 0 -0.000203814
0 0 -0.000198413
0 0 -0.000192349
0 0 -0.000185644
0 0 -0.000178326
0 0 -0.000170425
0 0 -0.000161977
0 0 -0.000153023
0 0 -0.000143609
0 0 -0.000133789
0 0 -0.000123621
0 0 -0.000113172
0 0 -0.000102518
0 0 -9.17422e-05
0 0 -8.09387e-05
0 0 -7.02119e-05
0 0 -5.96782e-05
0 0 -4.94664e-05
0 0 -3.97193e-05
0 0 -3.05947e-05
0 0 -2.22666e-05
0 0 -1.4927e-05
0 0 -8.78695e-06
0 0 -4.0785e-06
0 0 -1.05639e-06
0 0 0
0 0 0
0 0 -1.10146e-06
0 0 -4.25347e-06
0 0 -9.16632e-06
0 0 -1.55755e-05
0 0 -2.32398e-05
0 0 -3.19395e-05
0 0 -4.14745e-05
0 0 -5.16635e-05
0 0 -6.23415e-05
0 0 -7.33596e-05
0 0 -8.45829e-05
0 0 -9.58897e-05
0 0 -0.000107171
0 0 -0.000118327
0 0 -0.000129271
0 0 -0.000139924
0 0 -0.000150214
0 0 -0.000160081
0 0 -0.000169468
0 0 -0.000178326
0 0 -0.000186612
0 0 -0.000194288
0 0 -0.000201322
0 0 -0.000207685
0 0 -0.000213352
0 0 -0.000218302
0 0 -0.00022252
0 0 -0.000225989
0 0 -0.000228698
0 0 -0.00023064
0 0 -0.000231807
0 0 -0.000232197
0 0 -0.000231807
0 0 -0.00023064
0 0 -0.000228698
0 0 -0.000225989
0 0 -0.00022252
0 0 -0.000218302
0 0 -0.000213352
0 0 -0.000207685
0 0 -0.000201322
0 0 -0.000194288
0 0 -0.000186612
0 0 -0.000178326
0 0 -0.000169468
0 0 -0.000160081
0 0 -0.000150214
0 0 -0.000139924
0 0 -0.000129271
0 0 -0.000118327
0 0 -0.000107171
0 0 -9.58897e-05
0 0 -8.45829e-05
0 0 -7.33596e-05
0 0 -6.23415e-05
0 0 -5.16635e-05
0 0 -4.14745e-05
0 0 -3.19395e-05
0 0 -2.32398e-05
0 0 -1.55755e-05
0 0 -9.16632e-06
0 0 -4.25347e-06
0 0 -1.10146e-06
0 0 0
0 0 0
0 0 -1.14289e-06
0 0 -4.41439e-06
0 0 -9.51546e-06
0 0 -1.61727e-05
0 0 -2.41365e-05
0 0 -3.31792e-05
0 0 -4.30936e-05
0 0 -5.36911e-05
0 0 -6.48006e-05
0 0 -7.62671e-05
0 0 -8.79504e-05
0 0 -9.97237e-05
0 0 -0.000111473
0 0 -0.000123095
0 0 -0.000134499
0 0 -0.000145601
0 0 -0.000156329
0 0 -0.000166616
0 0 -0.000176405
0 0 -0.000185644
0 0 -0.000194288
0 0 -0.000202297
0 0 -0.000209637
0 0 -0.000216277
0 0 -0.000222192
0 0 -0.00022736
0 0 -0.000231762
0 0 -0.000235384
0 0 -0.000238213
0 0 -0.00024024
0 0 -0.000241459
0 0 -0.000241865
0 0 -0.000241459
0 0 -0.00024024
0 0 -0.000238213
0 0 -0.000235384
0 0 -0.000231762
0 0 -0.00022736
0 0 -0.000222192
0 0 -0.000216277
0 0 -0.000209637
0 0 -0.000202297
0 0 -0.000194288
0 0 -0.000185644
0 0 -0.000176405
0 0 -0.000166616
0 0 -0.000156329
0 0 -0.000145601
0 0 -0.000134499
0 0 -0.000123095
0 0 -0.000111473
0 0 -9.97237e-05
0 0 -8.79504e-05
0 0 -7.62671e-05
0 0 -6.48006e-05
0 0 -5.36911e-05
0 0 -4.30936e-05
0 0 -3.31792e-05
0 0 -2.41365e-05
0 0 -1.61727e-05
0 0 -9.51546e-06
0 0 -4.41439e-06
0 0 -1.14289e-06
0 0 0
0 0 0
0 0 -1.18059e-06
0 0 -4.56086e-06
0 0 -9.83344e-06
0 0 -1.67169e-05
0 0 -2.49541e-05
0 0 -3.43103e-05
0 0 -4.45713e-05
0 0 -5.55425e-05
0 0 -6.70469e-05
0 0 -7.89241e-05
0 0 -9.10288e-05
0 0 -0.00010323
0 0 -0.000115408
0 0 -0.000127458
0 0 -0.000139284
0 0 -0.000150799
0 0 -0.000161928
0 0 -0.000172602
0 0 -0.00018276
0 0 -0.000192349
0 0 -0.000201322
0 0 -0.000209637
0 0 -0.000217258
0 0 -0.000224153
0 0 -0.000230296
0 0 -0.000235663
0 0 -0.000240236
0 0 -0.000243998
0 0 -0.000246937
0 0 -0.000249043
0 0 -0.000250309
0 0 -0.000250731
0 0 -0.000250309
0 0 -0.000249043
0 0 -0.000246937
0 0 -0.000243998
0 0 -0.000240236
0 0 -0.000235663
0 0 -0.000230296
0 0 -0.000224153
0 0 -0.000217258
0 0 -0.000209637
0 0 -0.000201322
0 0 -0.000192349
0 0 -0.00018276
0 0 -0.000172602
0 0 -0.000161928
0 0 -0.000150799
0 0 -0.000139284
0 0 -0.000127458
0 0 -0.000115408
0 0 -0.00010323
0 0 -9.10288e-05
0 0 -7.89241e-05
0 0 -6.70469e-05
0 0 -5.55425e-05
0 0 -4.45713e-05
0 0 -3.43103e-05
0 0 -2.49541e-05
0 0 -1.67169e-05
0 0 -9.83344e-06
0 0 -4.56086e-06
0 0 -1.18059e-06
0 0 0
0 0 0
0 0 -1.21447e-06
0 0 -4.69258e-06
0 0 -1.01195e-05
0 0 -1.72068e-05
0 0 -2.56905e-05
0 0 -3.53293e-05
0 0 -4.59032e-05
0 0 -5.7212e-05
0 0 -6.90733e-05
0 0 -8.13218e-05
0 0 -9.38077e-05
0 0 -0.000106395
0 0 -0.000118963
0 0 -0.0001314
0 0 -0.000143607
0 0 -0.000155497
0 0 -0.000166989
0 0 -0.000178013
0 0 -0.000188507
0 0 -0.000198413
0 0 -0.000207685
0 0 -0.000216277
0 0 -0.000224153
0 0 -0.00023128
0 0 -0.00023763
0 0 -0.000243178
0 0 -0.000247905
0 0 -0.000251795
0 0 -0.000254833
0 0 -0.000257011
0 0 -0.00025832
0 0 -0.000258757
0 0 -0.00025832
0 0 -0.000257011
0 0 -0.000254833
0 0 -0.000251795
0 0 -0.000247905
0 0 -0.000243178
0 0 -0.00023763
0 0 -0.00023128
0 0 -0.000224153
0 0 -0.000216277
0 0 -0.000207685
0 0 -0.000198413
0 0 -0.000188507
0 0 -0.000178013
0 0 -0.000166989
0 0 -0.000155497
0 0 -0.000143607
0 0 -0.0001314
0 0 -0.000118963
0 0 -0.000106395
0 0 -9.38077e-05
0 0 -8.13218e-05
0 0 -6.90733e-05
0 0 -5.7212e-05
0 0 -4.59032e-05
0 0 -3.53293e-05
0 0 -2.56905e-05
0 0 -1.72068e-05
0 0 -1.01195e-05
0 0 -4.69258e-06
0 0 -1.21447e-06
0 0 0
0 0 0
0 0 -1.24448e-06
0 0 -4.80929e-06
0 0 -1.03731e-05
0 0 -1.76413e-05
0 0 -2.63437e-05
0 0 -3.62337e-05
0 0 -4.70858e-05
0 0 -5.86948e-05
0 0 -7.08736e-05
0 0 -8.34527e-05
0 0 -9.62781e-05
0 0 -0.000109211
0 0 -0.000122125
0 0 -0.000134907
0 0 -0.000147455
0 0 -0.000159678
0 0 -0.000171495
0 0 -0.000182832
0 0 -0.000193624
0 0 -0.000203814
0 0 -0.000213352
0 0 -0.000222192
0 0 -0.000230296
0 0 -0.00023763
0 0 -0.000244164
0 0 -0.000249875
0 0 -0.00025474
0 0 -0.000258743
0 0 -0.000261871
0 0 -0.000264112
0 0 -0.00026546
0 0 -0.00026591
0 0 -0.00026546
0 0 -0.000264112
0 0 -0.000261871
0 0 -0.000258743
0 0 -0.00025474
0 0 -0.000249875
0 0 -0.000244164
0 0 -0.00023763
0 0 -0.000230296
0 0 -0.000222192
0 0 -0.000213352
0 0 -0.000203814
0 0 -0.000193624
0 0 -0.000182832
0 0 -0.000171495
0 0 -0.000159678
0 0 -0.000147455
0 0 -0.000134907
0 0 -0.000122125
0 0 -0.000109211
0 0 -9.62781e-05
0 0 -8.34527e-05
0 0 -7.08736e-05
0 0 -5.86948e-05
0 0 -4.70858e-05
0 0 -3.62337e-05
0 0 -2.63437e-05
0 0 -1.76413e-05
0 0 -1.03731e-05
0 0 -4.80929e-06
0 0 -1.24448e-06
0 0 0
0 0 0
0 0 -1.27057e-06
0 0 -4.91078e-06
0 0 -1.05937e-05
0 0 -1.80193e-05
0 0 -2.69124e-05
0 0 -3.70214e-05
0 0 -4.81161e-05
0 0 -5.9987e-05
0 0 -7.2443e-05
0 0 -8.53107e-05
0 0 -9.84327e-05
0 0 -0.000111666
0 0 -0.000124883
0 0 -0.000137967
0 0 -0.000150813
0 0 -0.000163329
0 0 -0.000175429
0 0 -0.000187039
0 0 -0.000198093
0 0 -0.000208532
0 0 -0.000218302
0 0 -0.00022736
0 0 -0.000235663
0 0 -0.000243178
0 0 -0.000249875
0 0 -0.000255727
0 0 -0.000260713
0 0 -0.000264816
0 0 -0.000268022
0 0 -0.000270319
0 0 -0.000271701
0 0 -0.000272162
0 0 -0.000271701
0 0 -0.000270319
0 0 -0.000268022
0 0 -0.000264816
0 0 -0.000260713
0 0 -0.000255727
0 0 -0.000249875
0 0 -0.000243178
0 0 -0.000235663
0 0 -0.00022736
0 0 -0.000218302
0 0 -0.000208532
0 0 -0.000198093
0 0 -0.000187039
0 0 -0.000175429
0 0 -0.000163329
0 0 -0.000150813
0 0 -0.000137967
0 0 -0.000124883
0 0 -0.000111666
0 0 -9.84327e-05
0 0 -8.53107e-05
0 0 -7.2443e-05
0 0 -5.9987e-05
0 0 -4.81161e-05
0 0 -3.70214e-05
0 0 -2.69124e-05
0 0 -1.80193e-05
0 0 -1.05937e-05
0 0 -4.91078e-06
0 0 -1.27057e-06
0 0 0
0 0 0
0 0 -1.2927e-06
0 0 -4.9969e-06
0 0 -1.0781e-05
0 0 -1.83403e-05
0 0 -2.73954e-05
0 0 -3.76905e-05
0 0 -4.89916e-05
0 0 -6.10853e-05
0 0 -7.37773e-05
0 0 -8.68908e-05
0 0 -0.000100265
0 0 -0.000113756
0 0 -0.000127231
0 0 -0.000140572
0 0 -0.000153672
0 0 -0.000166436
0 0 -0.000178778
0 0 -0.000190622
0 0 -0.000201899
0 0 -0.00021255
0 0 -0.00022252
0 0 -0.000231762
0 0 -0.000240236
0 0 -0.000247905
0 0 -0.00025474
0 0 -0.000260713
0 0 -0.000265803
0 0 -0.000269992
0 0 -0.000273264
0 0 -0.000275609
0 0 -0.000277019
0 0 -0.00027749
0 0 -0.000277019
0 0 -0.000275609
0 0 -0.000273264
0 0 -0.000269992
0 0 -0.000265803
0 0 -0.000260713
0 0 -0.00025474
0 0 -0.000247905
0 0 -0.000240236
0 0 -0.000231762
0 0 -0.00022252
0 0 -0.00021255
0 0 -0.000201899
0 0 -0.000190622
0 0 -0.000178778
0 0 -0.000166436
0 0 -0.000153672
0 0 -0.000140572
0 0 -0.000127231
0 0 -0.000113756
0 0 -0.000100265
0 0 -8.68908e-05
0 0 -7.37773e-05
0 0 -6.10853e-05
0 0 -4.89916e-05
0 0 -3.76905e-05
0 0 -2.73954e-05
0 0 -1.83403e-05
0 0 -1.0781e-05
0 0 -4.9969e-06
0 0 -1.2927e-06
0 0 0
0 0 0
0 0 -1.31084e-06
0 0 -5.06751e-06
0 0 -1.09346e-05
0 0 -1.86037e-05
0 0 -2.77918e-05
0 0 -3.82397e-05
0 0 -4.97104e-05
0 0 -6.19873e-05
0 0 -7.48732e-05
0 0 -8.81888e-05
0 0 -0.000101771
0 0 -0.000115473
0 0 -0.00012916
0 0 -0.000142713
0 0 -0.000156022
0 0 -0.000168991
0 0 -0.000181533
0 0 -0.000193569
0 0 -0.00020503
0 0 -0.000215855
0 0 -0.000225989
0 0 -0.000235384
0 0 -0.000243998
0 0 -0.000251795
0 0 -0.000258743
0 0 -0.000264816
0 0 -0.000269992
0 0 -0.00027425
0 0 -0.000277577
0 0 -0.000279962
0 0 -0.000281396
0 0 -0.000281874
0 0 -0.000281396
0 0 -0.000279962
0 0 -0.000277577
0 0 -0.00027425
0 0 -0.000269992
0 0 -0.000264816
0 0 -0.000258743
0 0 -0.000251795
0 0 -0.000243998
0 0 -0.000235384
0 0 -0.000225989
0 0 -0.000215855
0 0 -0.00020503
0 0 -0.000193569
0 0 -0.000181533
0 0 -0.000168991
0 0 -0.000156022
0 0 -0.000142713
0 0 -0.00012916
0 0 -0.000115473
0 0 -0.000101771
0 0 -8.81888e-05
0 0 -7.48732e-05
0 0 -6.19873e-05
0 0 -4.97104e-05
0 0 -3.82397e-05
0 0 -2.77918e-05
0 0 -1.86037e-05
0 0 -1.09346e-05
0 0 -5.06751e-06
0 0 -1.31084e-06
0 0 0
0 0 0
0 0 -1.32497e-06
0 0 -5.12252e-06
0 0 -1.10542e-05
0 0 -1.88089e-05
0 0 -2.81008e-05
0 0 -3.8668e-05
0 0 -5.02709e-05
0 0 -6.26908e-05
0 0 -7.57281e-05
0 0 -8.92015e-05
0 0 -0.000102946
0 0 -0.000116813
0 0 -0.000130666
0 0 -0.000144384
0 0 -0.000157857
0 0 -0.000170986
0 0 -0.000183684
0 0 -0.00019587
0 0 -0.000207475
0 0 -0.000218436
0 0 -0.000228698
0 0 -0.000238213
0 0 -0.000246937
0 0 -0.000254833
0 0 -0.000261871
0 0 -0.000268022
0 0 -0.000273264
0 0 -0.000277577
0 0 -0.000280947
0 0 -0.000283363
0 0 -0.000284815
0 0 -0.0002853
0 0 -0.000284815
0 0 -0.000283363
0 0 -0.000280947
0 0 -0.000277577
0 0 -0.000273264
0 0 -0.000268022
0 0 -0.000261871
0 0 -0.000254833
0 0 -0.000246937
0 0 -0.000238213
0 0 -0.000228698
0 0 -0.000218436
0 0 -0.000207475
0 0 -0.00019587
0 0 -0.000183684
0 0 -0.000170986
0 0 -0.000157857
0 0 -0.000144384
0 0 -0.000130666
0 0 -0.000116813
0 0 -0.000102946
0 0 -8.92015e-05
0 0 -7.57281e-05
0 0 -6.26908e-05
0 0 -5.02709e-05
0 0 -3.8668e-05
0 0 -2.81008e-05
0 0 -1.88089e-05
0 0 -1.10542e-05
0 0 -5.12252e-06
0 0 -1.32497e-06
0 0 0
0 0 0
0 0 -1.33507e-06
0 0 -5.16186e-06
0 0 -1.11398e-05
0 0 -1.89557e-05
0 0 -2.83218e-05
0 0 -3.89744e-05
0 0 -5.06721e-05
0 0 -6.31943e-05
0 0 -7.63402e-05
0 0 -8.99266e-05
0 0 -0.000103787
0 0 -0.000117772
0 0 -0.000131744
0 0 -0.000145581
0 0 -0.000159171
0 0 -0.000172415
0 0 -0.000185225
0 0 -0.000197519
0 0 -0.000209227
0 0 -0.000220286
0 0 -0.00023064
0 0 -0.00024024
0 0 -0.000249043
0 0 -0.000257011
0 0 -0.000264112
0 0 -0.000270319
0 0 -0.000275609
0 0 -0.000279962
0 0 -0.000283363
0 0 -0.0002858
0 0 -0.000287266
0 0 -0.000287755
0 0 -0.000287266
0 0 -0.0002858
0 0 -0.000283363
0 0 -0.000279962
0 0 -0.000275609
0 0 -0.000270319
0 0 -0.000264112
0 0 -0.000257011
0 0 -0.000249043
0 0 -0.00024024
0 0 -0.00023064
0 0 -0.000220286
0 0 -0.000209227
0 0 -0.000197519
0 0 -0.000185225
0 0 -0.000172415
0 0 -0.000159171
0 0 -0.000145581
0 0 -0.000131744
0 0 -0.000117772
0 0 -0.000103787
0 0 -8.99266e-05
0 0 -7.63402e-05
0 0 -6.31943e-05
0 0 -5.06721e-05
0 0 -3.89744e-05
0 0 -2.83218e-05
0 0 -1.89557e-05
0 0 -1.11398e-05
0 0 -5.16186e-06
0 0 -1.33507e-06
0 0 0
0 0 0
0 0 -1.34114e-06
0 0 -5.18548e-06
0 0 -1.11912e-05
0 0 -1.90439e-05
0 0 -2.84546e-05
0 0 -3.91585e-05
0 0 -5.09131e-05
0 0 -6.34969e-05
0 0 -7.67079e-05
0 0 -9.03623e-05
0 0 -0.000104293
0 0 -0.000118349
0 0 -0.000132392
0 0 -0.0001463
0 0 -0.000159961
0 0 -0.000173274
0 0 -0.000186151
0 0 -0.00019851
0 0 -0.00021028
0 0 -0.000221398
0 0 -0.000231807
0 0 -0.000241459
0 0 -0.000250309
0 0 -0.00025832
0 0 -0.00026546
0 0 -0.000271701
0 0 -0.000277019
0 0 -0.000281396
0 0 -0.000284815
0 0 -0.000287266
0 0 -0.00028874
0 0 -0.000289232
0 0 -0.00028874
0 0 -0.000287266
0 0 -0.000284815
0 0 -0.000281396
0 0 -0.000277019
0 0 -0.000271701
0 0 -0.00026546
0 0 -0.00025832
0 0 -0.000250309
0 0 -0.000241459
0 0 -0.000231807
0 0 -0.000221398
0 0 -0.00021028
0 0 -0.00019851
0 0 -0.000186151
0 0 -0.000173274
0 0 -0.000159961
0 0 -0.0001463
0 0 -0.000132392
0 0 -0.000118349
0 0 -0.000104293
0 0 -9.03623e-05
0 0 -7.67079e-05
0 0 -6.34969e-05
0 0 -5.09131e-05
0 0 -3.91585e-05
0 0 -2.84546e-05
0 0 -1.90439e-05
0 0 -1.11912e-05
0 0 -5.18548e-06
0 0 -1.34114e-06
0 0 0
0 0 0
0 0 -1.34316e-06
0 0 -5.19336e-06
0 0 -1.12084e-05
0 0 -1.90733e-05
0 0 -2.84989e-05
0 0 -3.92199e-05
0 0 -5.09935e-05
0 0 -6.35978e-05
0 0 -7.68306e-05
0 0 -9.05076e-05
0 0 -0.000104462
0 0 -0.000118541
0 0 -0.000132609
0 0 -0.00014654
0 0 -0.000160225
0 0 -0.000173561
0 0 -0.00018646
0 0 -0.00019884
0 0 -0.000210631
0 0 -0.000221769
0 0 -0.000232197
0 0 -0.000241865
0 0 -0.000250731
0 0 -0.000258757
0 0 -0.00026591
0 0 -0.000272162
0 0 -0.00027749
0 0 -0.000281874
0 0 -0.0002853
0 0 -0.000287755
0 0 -0.000289232
0 0 -0.000289724
0 0 -0.000289232
0 0 -0.000287755
0 0 -0.0002853
0 0 -0.000281874
0 0 -0.00027749
0 0 -0.000272162
0 0 -0.00026591
0 0 -0.000258757
0 0 -0.000250731
0 0 -0.000241865
0 0 -0.000232197
0 0 -0.000221769
0 0 -0.000210631
0 0 -0.00019884
0 0 -0.00018646
0 0 -0.000173561
0 0 -0.000160225
0 0 -0.00014654
0 0 -0.000132609
0 0 -0.000118541
0 0 -0.000104462
0 0 -9.05076e-05
0 0 -7.68306e-05
0 0 -6.35978e-05
0 0 -5.09935e-05
0 0 -3.92199e-05
0 0 -2.84989e-05
0 0 -1.90733e-05
0 0 -1.12084e-05
0 0 -5.19336e-06
0 0 -1.34316e-06
0 0 0
0 0 0
0 0 -1.34114e-06
0 0 -5.18548e-06
0 0 -1.11912e-05
0 0 -1.90439e-05
0 0 -2.84546e-05
0 0 -3.91585e-05
0 0 -5.09131e-05
0 0 -6.34969e-05
0 0 -7.67079e-05
0 0 -9.03623e-05
0 0 -0.000104293
0 0 -0.000118349
0 0 -0.000132392
0 0 -0.0001463
0 0 -0.000159961
0 0 -0.000173274
0 0 -0.000186151
0 0 -0.00019851
0 0 -0.00021028
0 0 -0.000221398
0 0 -0.000231807
0 0 -0.000241459
0 0 -0.000250309
0 0 -0.00025832
0 0 -0.00026546
0 0 -0.000271701
0 0 -0.000277019
0 0 -0.000281396
0 0 -0.000284815
0 0 -0.000287266
0 0 -0.00028874
0 0 -0.000289232
0 0 -0.00028874
0 0 -0.000287266
0 0 -0.000284815
0 0 -0.000281396
0 0 -0.000277019
0 0 -0.000271701
0 0 -0.00026546
0 0 -0.00025832
0 0 -0.000250309
0 0 -0.000241459
0 0 -0.000231807
0 0 -0.000221398
0 0 -0.00021028
0 0 -0.00019851
0 0 -0.000186151
0 0 -0.000173274
0 0 -0.000159961
0 0 -0.0001463
0 0 -0.000132392
0 0 -0.000118349
0 0 -0.000104293
0 0 -9.03623e-05
0 0 -7.67079e-05
0 0 -6.34969e-05
0 0 -5.09131e-05
0 0 -3.91585e-05
0 0 -2.84546e-05
0 0 -1.90439e-05
0 0 -1.11912e-05
0 0 -5.18548e-06
0 0 -1.34114e-06
0 0 0
0 0 0
0 0 -1.33507e-06
0 0 -5.16186e-06
0 0 -1.11398e-05
0 0 -1.89557e-05
0 0 -2.83218e-05
0 0 -3.89744e-05
0 0 -5.06721e-05
0 0 -6.31943e-05
0 0 -7.63402e-05
0 0 -8.99266e-05
0 0 -0.000103787
0 0 -0.000117772
0 0 -0.000131744
0 0 -0.000145581
0 0 -0.000159171
0 0 -0.000172415
0 0 -0.000185225
0 0 -0.000197519
0 0 -0.000209227
0 0 -0.000220286
0 0 -0.00023064
0 0 -0.00024024
0 0 -0.000249043
0 0 -0.000257011
0 0 -0.000264112
0 0 -0.000270319
0 0 -0.000275609
0 0 -0.000279962
0 0 -0.000283363
0 0 -0.0002858
0 0 -0.000287266
0 0 -0.000287755
0 0 -0.000287266
0 0 -0.0002858
0 0 -0.000283363
0 0 -0.000279962
0 0 -0.000275609
0 0 -0.000270319
0 0 -0.000264112
0 0 -0.000257011
0 0 -0.000249043
0 0 -0.00024024
0 0 -0.00023064
0 0 -0.000220286
0 0 -0.000209227
0 0 -0.000197519
0 0 -0.000185225
0 0 -0.000172415
0 0 -0.000159171
0 0 -0.000145581
0 0 -0.000131744
0 0 -0.000117772
0 0 -0.000103787
0 0 -8.99266e-05
0 0 -7.63402e-05
0 0 -6.31943e-05
0 0 -5.06721e-05
0 0 -3.89744e-05
0 0 -2.83218e-05
0 0 -1.89557e-05
0 0 -1.11398e-05
0 0 -5.16186e-06
0 0 -1.33507e-06
0 0 0
0 0 0
0 0 -1.32497e-06
0 0 -5.12252e-06
0 0 -1.10542e-05
0 0 -1.88089e-05
0 0 -2.81008e-05
0 0 -3.8668e-05
0 0 -5.02709e-05
0 0 -6.26908e-05
0 0 -7.57281e-05
0 0 -8.92015e-05
0 0 -0.000102946
0 0 -0.000116813
0 0 -0.000130666
0 0 -0.000144384
0 0 -0.000157857
0 0 -0.000170986
0 0 -0.000183684
0 0 -0.00019587
0 0 -0.000207475
0 0 -0.000218436
0 0 -0.000228698
0 0 -0.000238213
0 0 -0.000246937
0 0 -0.000254833
0 0 -0.000261871
0 0 -0.000268022
0 0 -0.000273264
0 0 -0.000277577
0 0 -0.000280947
0 0 -0.000283363
0 0 -0.000284815
0 0 -0.0002853
0 0 -0.000284815
0 0 -0.000283363
0 0 -0.000280947
0 0 -0.000277577
0 0 -0.000273264
0 0 -0.000268022
0 0 -0.000261871
0 0 -0.000254833
0 0 -0.000246937
0 0 -0.000238213
0 0 -0.000228698
0 0 -0.000218436
0 0 -0.000207475
0 0 -0.00019587
0 0 -0.000183684
0 0 -0.000170986
0 0 -0.000157857
0 0 -0.000144384
0 0 -0.000130666
0 0 -0.000116813
0 0 -0.000102946
0 0 -8.92015e-05
0 0 -7.57281e-05
0 0 -6.26908e-05
0 0 -5.02709e-05
0 0 -3.8668e-05
0 0 -2.81008e-05
0 0 -1.88089e-05
0 0 -1.10542e-05
0 0 -5.12252e-06
0 0 -1.32497e-06
0 0 0
0 0 0
0 0 -1.31084e-06
0 0 -5.06751e-06
0 0 -1.09346e-05
0 0 -1.86037e-05
0 0 -2.77918e-05
0 0 -3.82397e-05
0 0 -4.97104e-05
0 0 -6.19873e-05
0 0 -7.48732e-05
0 0 -8.81888e-05
0 0 -0.000101771
0 0 -0.000115473
0 0 -0.00012916
0 0 -0.000142713
0 0 -0.000156022
0 0 -0.000168991
0 0 -0.000181533
0 0 -0.000193569
0 0 -0.00020503
0 0 -0.000215855
0 0 -0.000225989
0 0 -0.000235384
0 0 -0.000243998
0 0 -0.000251795
0 0 -0.000258743
0 0 -0.000264816
0 0 -0.000269992
0 0 -0.00027425
0 0 -0.000277577
0 0 -0.000279962
0 0 -0.000281396
0 0 -0.000281874
0 0 -0.000281396
0 0 -0.000279962
0 0 -0.000277577
0 0 -0.00027425
0 0 -0.000269992
0 0 -0.000264816
0 0 -0.000258743
0 0 -0.000251795
0 0 -0.000243998
0 0 -0.000235384
0 0 -0.000225989
0 0 -0.000215855
0 0 -0.00020503
0 0 -0.000193569
0 0 -0.000181533
0 0 -0.000168991
0 0 -0.000156022
0 0 -0.000142713
0 0 -0.00012916
0 0 -0.000115473
0 0 -0.000101771
0 0 -8.81888e-05
0 0 -7.48732e-05
0 0 -6.19873e-05
0 0 -4.97104e-05
0 0 -3.82397e-05
0 0 -2.77918e-05
0 0 -1.86037e-05
0 0 -1.09346e-05
0 0 -5.06751e-06
0 0 -1.31084e-06
0 0 0
0 0 0
0 0 -1.2927e-06
0 0 -4.9969e-06
0 0 -1.0781e-05
0 0 -1.83403e-05
0 0 -2.73954e-05
0 0 -3.76905e-05
0 0 -4.89916e-05
0 0 -6.10853e-05
0 0 -7.37773e-05
0 0 -8.68908e-05
0 0 -0.000100265
0 0 -0.000113756
0 0 -0.000127231
0 0 -0.000140572
0 0 -0.000153672
0 0 -0.000166436
0 0 -0.000178778
0 0 -0.000190622
0 0 -0.000201899
0 0 -0.00021255
0 0 -0.00022252
0 0 -0.000231762
0 0 -0.000240236
0 0 -0.000247905
0 0 -0.00025474
0 0 -0.000260713
0 0 -0.000265803
0 0 -0.000269992
0 0 -0.000273264
0 0 -0.000275609
0 0 -0.000277019
0 0 -0.00027749
0 0 -0.000277019
0 0 -0.000275609
0 0 -0.000273264
0 0 -0.000269992
0 0 -0.000265803
0 0 -0.000260713
0 0 -0.00025474
0 0 -0.000247905
0 0 -0.000240236
0 0 -0.000231762
0 0 -0.00022252
0 0 -0.00021255
0 0 -0.000201899
0 0 -0.000190622
0 0 -0.000178778
0 0 -0.000166436
0 0 -0.000153672
0 0 -0.000140572
0 0 -0.000127231
0 0 -0.000113756
0 0 -0.000100265
0 0 -8.68908e-05
0 0 -7.37773e-05
0 0 -6.10853e-05
0 0 -4.89916e-05
0 0 -3.76905e-05
0 0 -2.73954e-05
0 0 -1.83403e-05
0 0 -1.0781e-05
0 0 -4.9969e-06
0 0 -1.2927e-06
0 0 0
0 0 0
0 0 -1.27057e-06
0 0 -4.91078e-06
0 0 -1.05937e-05
0 0 -1.80193e-05
0 0 -2.69124e-05
0 0 -3.70214e-05
0 0 -4.81161e-05
0 0 -5.9987e-05
0 0 -7.2443e-05
0 0 -8.53107e-05
0 0 -9.84327e-05
0 0 -0.000111666
0 0 -0.000124883
0 0 -0.000137967
0 0 -0.000150813
0 0 -0.000163329
0 0 -0.000175429
0 0 -0.000187039
0 0 -0.000198093
0 0 -0.000208532
0 0 -0.000218302
0 0 -0.00022736
0 0 -0.000235663
0 0 -0.000243178
0 0 -0.000249875
0 0 -0.000255727
0 0 -0.000260713
0 0 -0.000264816
0 0 -0.000268022
0 0 -0.000270319
0 0 -0.000271701
0 0 -0.000272162
0 0 -0.000271701
0 0 -0.000270319
0 0 -0.000268022
0 0 -0.000264816
0 0 -0.000260713
0 0 -0.000255727
0 0 -0.000249875
0 0 -0.000243178
0 0 -0.000235663
0 0 -0.00022736
0 0 -0.000218302
0 0 -0.000208532
0 0 -0.000198093
0 0 -0.000187039
0 0 -0.000175429
0 0 -0.000163329
0 0 -0.000150813
0 0 -0.000137967
0 0 -0.000124883
0 0 -0.000111666
0 0 -9.84327e-05
0 0 -8.53107e-05
0 0 -7.2443e-05
0 0 -5.9987e-05
0 0 -4.81161e-05
0 0 -3.70214e-05
0 0 -2.69124e-05
0 0 -1.80193e-05
0 0 -1.05937e-05
0 0 -4.91078e-06
0 0 -1.27057e-06
0 0 0
0 0 0
0 0 -1.24448e-06
0 0 -4.80929e-06
0 0 -1.03731e-05
0 0 -1.76413e-05
0 0 -2.63437e-05
0 0 -3.62337e-05
0 0 -4.70858e-05
0 0 -5.86948e-05
0 0 -7.08736e-05
0 0 -8.34527e-05
0 0 -9.62781e-05
0 0 -0.000109211
0 0 -0.000122125
0 0 -0.000134907
0 0 -0.000147455
0 0 -0.000159678
0 0 -0.000171495
0 0 -0.000182832
0 0 -0.000193624
0 0 -0.000203814
0 0 -0.000213352
0 0 -0.000222192
0 0 -0.000230296
0 0 -0.00023763
0 0 -0.000244164
0 0 -0.000249875
0 0 -0.00025474
0 0 -0.000258743
0 0 -0.000261871
0 0 -0.000264112
0 0 -0.00026546
0 0 -0.00026591
0 0 -0.00026546
0 0 -0.000264112
0 0 -0.000261871
0 0 -0.000258743
0 0 -0.00025474
0 0 -0.000249875
0 0 -0.000244164
0 0 -0.00023763
0 0 -0.000230296
0 0 -0.000222192
0 0 -0.000213352
0 0 -0.000203814
0 0 -0.000193624
0 0 -0.000182832
0 0 -0.000171495
0 0 -0.000159678
0 0 -0.000147455
0 0 -0.000134907
0 0 -0.000122125
0 0 -0.000109211
0 0 -9.62781e-05
0 0 -8.34527e-05
0 0 -7.08736e-05
0 0 -5.86948e-05
0 0 -4.70858e-05
0 0 -3.62337e-05
0 0 -2.63437e-05
0 0 -1.76413e-05
0 0 -1.03731e-05
0 0 -4.80929e-06
0 0 -1.24448e-06
0 0 0
0 0 0
0 0 -1.21447e-06
0 0 -4.69258e-06
0 0 -1.01195e-05
0 0 -1.72068e-05
0 0 -2.56905e-05
0 0 -3.53293e-05
0 0 -4.59032e-05
0 0 -5.7212e-05
0 0 -6.90733e-05
0 0 -8.13218e-05
0 0 -9.38077e-05
0 0 -0.000106395
0 0 -0.000118963
0 0 -0.0001314
0 0 -0.000143607
0 0 -0.000155497
0 0 -0.000166989
0 0 -0.000178013
0 0 -0.000188507
0 0 -0.000198413
0 0 -0.000207685
0 0 -0.000216277
0 0 -0.000224153
0 0 -0.00023128
0 0 -0.00023763
0 0 -0.000243178
0 0 -0.000247905
0 0 -0.000251795
0 0 -0.000254833
0 0 -0.000257011
0 0 -0.00025832
0 0 -0.000258757
0 0 -0.00025832
0 0 -0.000257011
0 0 -0.000254833
0 0 -0.000251795
0 0 -0.000247905
0 0 -0.000243178
0 0 -0.00023763
0 0 -0.00023128
0 0 -0.000224153
0 0 -0.000216277
0 0 -0.000207685
0 0 -0.000198413
0 0 -0.000188507
0 0 -0.000178013
0 0 -0.000166989
0 0 -0.000155497
0 0 -0.000143607
0 0 -0.0001314
0 0 -0.000118963
0 0 -0.000106395
0 0 -9.38077e-05
0 0 -8.13218e-05
0 0 -6.90733e-05
0 0 -5.7212e-05
0 0 -4.59032e-05
0 0 -3.53293e-05
0 0 -2.56905e-05
0 0 -1.72068e-05
0 0 -1.01195e-05
0 0 -4.69258e-06
0 0 -1.21447e-06
0 0 0
0 0 0
0 0 -1.18059e-06
0 0 -4.56086e-06
0 0 -9.83344e-06
0 0 -1.67169e-05
0 0 -2.49541e-05
0 0 -3.43103e-05
0 0 -4.45713e-05
0 0 -5.55425e-05
0 0 -6.70469e-05
0 0 -7.89241e-05
0 0 -9.10288e-05
0 0 -0.00010323
0 0 -0.000115408
0 0 -0.000127458
0 0 -0.000139284
0 0 -0.000150799
0 0 -0.000161928
0 0 -0.000172602
0 0 -0.00018276
0 0 -0.000192349
0 0 -0.000201322
0 0 -0.000209637
0 0 -0.000217258
0 0 -0.000224153
0 0 -0.000230296
0 0 -0.000235663
0 0 -0.000240236
0 0 -0.000243998
0 0 -0.000246937
0 0 -0.000249043
0 0 -0.000250309
0 0 -0.000250731
0 0 -0.000250309
0 0 -0.000249043
0 0 -0.000246937
0 0 -0.000243998
0 0 -0.000240236
0 0 -0.000235663
0 0 -0.000230296
0 0 -0.000224153
0 0 -0.000217258
0 0 -0.000209637
0 0 -0.000201322
0 0 -0.000192349
0 0 -0.00018276
0 0 -0.000172602
0 0 -0.000161928
0 0 -0.000150799
0 0 -0.000139284
0 0 -0.000127458
0 0 -0.000115408
0 0 -0.00010323
0 0 -9.10288e-05
0 0 -7.89241e-05
0 0 -6.70469e-05
0 0 -5.55425e-05
0 0 -4.45713e-05
0 0 -3.43103e-05
0 0 -2.49541e-05
0 0 -1.67169e-05
0 0 -9.83344e-06
0 0 -4.56086e-06
0 0 -1.18059e-06
0 0 0
0 0 0
0 0 -1.14289e-06
0 0 -4.41439e-06
0 0 -9.51546e-06
0 0 -1.61727e-05
0 0 -2.41365e-05
0 0 -3.31792e-05
0 0 -4.30936e-05
0 0 -5.36911e-05
0 0 -6.48006e-05
0 0 -7.62671e-05
0 0 -8.79504e-05
0 0 -9.97237e-05
0 0 -0.000111473
0 0 -0.000123095
0 0 -0.000134499
0 0 -0.000145601
0 0 -0.000156329
0 0 -0.000166616
0 0 -0.000176405
0 0 -0.000185644
0 0 -0.000194288
0 0 -0.000202297
0 0 -0.000209637
0 0 -0.000216277
0 0 -0.000222192
0 0 -0.00022736
0 0 -0.000231762
0 0 -0.000235384
0 0 -0.000238213
0 0 -0.00024024
0 0 -0.000241459
0 0 -0.000241865
0 0 -0.000241459
0 0 -0.00024024
0 0 -0.000238213
0 0 -0.000235384
0 0 -0.000231762
0 0 -0.00022736
0 0 -0.000222192
0 0 -0.000216277
0 0 -0.000209637
0 0 -0.000202297
0 0 -0.000194288
0 0 -0.000185644
0 0 -0.000176405
0 0 -0.000166616
0 0 -0.000156329
0 0 -0.000145601
0 0 -0.000134499
0 0 -0.000123095
0 0 -0.000111473
0 0 -9.97237e-05
0 0 -8.79504e-05
0 0 -7.62671e-05
0 0 -6.48006e-05
0 0 -5.36911e-05
0 0 -4.30936e-05
0 0 -3.31792e-05
0 0 -2.41365e-05
0 0 -1.61727e-05
0 0 -9.51546e-06
0 0 -4.41439e-06
0 0 -1.14289e-06
0 0 0
0 0 0
0 0 -1.10146e-06
0 0 -4.25347e-06
0 0 -9.16632e-06
0 0 -1.55755e-05
0 0 -2.32398e-05
0 0 -3.19395e-05
0 0 -4.14745e-05
0 0 -5.16635e-05
0 0 -6.23415e-05
0 0 -7.33596e-05
0 0 -8.45829e-05
0 0 -9.58897e-05
0 0 -0.000107171
0 0 -0.000118327
0 0 -0.000129271
0 0 -0.000139924
0 0 -0.000150214
0 0 -0.000160081
0 0 -0.000169468
0 0 -0.000178326
0 0 -0.000186612
0 0 -0.000194288
0 0 -0.000201322
0 0 -0.000207685
0 0 -0.000213352
0 0 -0.000218302
0 0 -0.00022252
0 0 -0.000225989
0 0 -0.000228698
0 0 -0.00023064
0 0 -0.000231807
0 0 -0.000232197
0 0 -0.000231807
0 0 -0.00023064
0 0 -0.000228698
0 0 -0.000225989
0 0 -0.00022252
0 0 -0.000218302
0 0 -0.000213352
0 0 -0.000207685
0 0 -0.000201322
0 0 -0.000194288
0 0 -0.000186612
0 0 -0.000178326
0 0 -0.000169468
0 0 -0.000160081
0 0 -0.000150214
0 0 -0.000139924
0 0 -0.000129271
0 0 -0.000118327
0 0 -0.000107171
0 0 -9.58897e-05
0 0 -8.45829e-05
0 0 -7.33596e-05
0 0 -6.23415e-05
0 0 -5.16635e-05
0 0 -4.14745e-05
0 0 -3.19395e-05
0 0 -2.32398e-05
0 0 -1.55755e-05
0 0 -9.16632e-06
0 0 -4.25347e-06
0 0 -1.10146e-06
0 0 0
0 0 0
0 0 -1.05639e-06
0 0 -4.0785e-06
0 0 -8.78695e-06
0 0 -1.4927e-05
0 0 -2.22666e-05
0 0 -3.05947e-05
0 0 -3.97193e-05
0 0 -4.94664e-05
0 0 -5.96782e-05
0 0 -7.02119e-05
0 0 -8.09387e-05
0 0 -9.17422e-05
0 0 -0.000102518
0 0 -0.000113172
0 0 -0.000123621
0 0 -0.000133789
0 0 -0.000143609
0 0 -0.000153023
0 0 -0.000161977
0 0 -0.000170425
0 0 -0.000178326
0 0 -0.000185644
0 0 -0.000192349
0 0 -0.000198413
0 0 -0.000203814
0 0 -0.000208532
0 0 -0.00021255
0 0 -0.000215855
0 0 -0.000218436
0 0 -0.000220286
0 0 -0.000221398
0 0 -0.000221769
0 0 -0.000221398
0 0 -0.000220286
0 0 -0.000218436
0 0 -0.000215855
0 0 -0.00021255
0 0 -0.000208532
0 0 -0.000203814
0 0 -0.000198413
0 0 -0.000192349
0 0 -0.000185644
0 0 -0.000178326
0 0 -0.000170425
0 0 -0.000161977
0 0 -0.000153023
0 0 -0.000143609
0 0 -0.000133789
0 0 -0.000123621
0 0 -0.000113172
0 0 -0.000102518
0 0 -9.17422e-05
0 0 -8.09387e-05
0 0 -7.02119e-05
0 0 -5.96782e-05
0 0 -4.94664e-05
0 0 -3.97193e-05
0 0 -3.05947e-05
0 0 -2.22666e-05
0 0 -1.4927e-05
0 0 -8.78695e-06
0 0 -4.0785e-06
0 0 -1.05639e-06
0 0 0
0 0 0
0 0 -1.00779e-06
0 0 -3.88995e-06
0 0 -8.37842e-06
0 0 -1.42291e-05
0 0 -2.12201e-05
0 0 -2.91495e-05
0 0 -3.78342e-05
0 0 -4.7108e-05
0 0 -5.68207e-05
0 0 -6.68363e-05
0 0 -7.70322e-05
0 0 -8.72979e-05
0 0 -9.75343e-05
0 0 -0.000107652
0 0 -0.000117572
0 0 -0.000127223
0 0 -0.000136542
0 0 -0.000145473
0 0 -0.000153966
0 0 -0.000161977
0 0 -0.000169468
0 0 -0.000176405
0 0 -0.00018276
0 0 -0.000188507
0 0 -0.000193624
0 0 -0.000198093
0 0 -0.000201899
0 0 -0.00020503
0 0 -0.000207475
0 0 -0.000209227
0 0 -0.00021028
0 0 -0.000210631
0 0 -0.00021028
0 0 -0.000209227
0 0 -0.000207475
0 0 -0.00020503
0 0 -0.000201899
0 0 -0.000198093
0 0 -0.000193624
0 0 -0.000188507
0 0 -0.00018276
0 0 -0.000176405
0 0 -0.000169468
0 0 -0.000161977
0 0 -0.000153966
0 0 -0.000145473
0 0 -0.000136542
0 0 -0.000127223
0 0 -0.000117572
0 0 -0.000107652
0 0 -9.75343e-05
0 0 -8.72979e-05
0 0 -7.70322e-05
0 0 -6.68363e-05
0 0 -5.68207e-05
0 0 -4.7108e-05
0 0 -3.78342e-05
0 0 -2.91495e-05
0 0 -2.12201e-05
0 0 -1.42291e-05
0 0 -8.37842e-06
0 0 -3.88995e-06
0 0 -1.00779e-06
0 0 0
0 0 0
0 0 -9.55808e-07
0 0 -3.68841e-06
0 0 -7.94209e-06
0 0 -1.34844e-05
0 0 -2.0104e-05
0 0 -2.76093e-05
0 0 -3.58263e-05
0 0 -4.45976e-05
0 0 -5.37807e-05
0 0 -6.32469e-05
0 0 -7.28802e-05
0 0 -8.25764e-05
0 0 -9.22418e-05
0 0 -0.000101792
0 0 -0.000111154
0 0 -0.000120258
0 0 -0.000129047
0 0 -0.000137467
0 0 -0.000145473
0 0 -0.000153023
0 0 -0.000160081
0 0 -0.000166616
0 0 -0.000172602
0 0 -0.000178013
0 0 -0.000182832
0 0 -0.000187039
0 0 -0.000190622
0 0 -0.000193569
0 0 -0.00019587
0 0 -0.000197519
0 0 -0.00019851
0 0 -0.00019884
0 0 -0.00019851
0 0 -0.000197519
0 0 -0.00019587
0 0 -0.000193569
0 0 -0.000190622
0 0 -0.000187039
0 0 -0.000182832
0 0 -0.000178013
0 0 -0.000172602
0 0 -0.000166616
0 0 -0.000160081
0 0 -0.000153023
0 0 -0.000145473
0 0 -0.000137467
0 0 -0.000129047
0 0 -0.000120258
0 0 -0.000111154
0 0 -0.000101792
0 0 -9.22418e-05
0 0 -8.25764e-05
0 0 -7.28802e-05
0 0 -6.32469e-05
0 0 -5.37807e-05
0 0 -4.45976e-05
0 0 -3.58263e-05
0 0 -2.76093e-05
0 0 -2.0104e-05
0 0 -1.34844e-05
0 0 -7.94209e-06
0 0 -3.68841e-06
0 0 -9.55808e-07
0 0 0
0 0 0
0 0 -9.00611e-07
0 0 -3.47457e-06
0 0 -7.47954e-06
0 0 -1.26955e-05
0 0 -1.89228e-05
0 0 -2.59805e-05
0 0 -3.37045e-05
0 0 -4.19464e-05
0 0 -5.0572e-05
0 0 -5.94603e-05
0 0 -6.85023e-05
0 0 -7.76002e-05
0 0 -8.66661e-05
0 0 -9.56214e-05
0 0 -0.000104396
0 0 -0.000112928
0 0 -0.000121161
0 0 -0.000129047
0 0 -0.000136542
0 0 -0.000143609
0 0 -0.000150214
0 0 -0.000156329
0 0 -0.000161928
0 0 -0.000166989
0 0 -0.000171495
0 0 -0.000175429
0 0 -0.000178778
0 0 -0.000181533
0 0 -0.000183684
0 0 -0.000185225
0 0 -0.000186151
0 0 -0.00018646
0 0 -0.000186151
0 0 -0.000185225
0 0 -0.000183684
0 0 -0.000181533
0 0 -0.000178778
0 0 -0.000175429
0 0 -0.000171495
0 0 -0.000166989
0 0 -0.000161928
0 0 -0.000156329
0 0 -0.000150214
0 0 -0.000143609
0 0 -0.000136542
0 0 -0.000129047
0 0 -0.000121161
0 0 -0.000112928
0 0 -0.000104396
0 0 -9.56214e-05
0 0 -8.66661e-05
0 0 -7.76002e-05
0 0 -6.85023e-05
0 0 -5.94603e-05
0 0 -5.0572e-05
0 0 -4.19464e-05
0 0 -3.37045e-05
0 0 -2.59805e-05
0 0 -1.89228e-05
0 0 -1.26955e-05
0 0 -7.47954e-06
0 0 -3.47457e-06
0 0 -9.00611e-07
0 0 0
0 0 0
0 0 -8.42412e-07
0 0 -3.24929e-06
0 0 -6.9927e-06
0 0 -1.1866e-05
0 0 -1.76819e-05
0 0 -2.42707e-05
0 0 -3.14788e-05
0 0 -3.91672e-05
0 0 -4.72105e-05
0 0 -5.54957e-05
0 0 -6.3921e-05
0 0 -7.23952e-05
0 0 -8.08366e-05
0 0 -8.9172e-05
0 0 -9.73364e-05
0 0 -0.000105272
0 0 -0.000112928
0 0 -0.000120258
0 0 -0.000127223
0 0 -0.000133789
0 0 -0.000139924
0 0 -0.000145601
0 0 -0.000150799
0 0 -0.000155497
0 0 -0.000159678
0 0 -0.000163329
0 0 -0.000166436
0 0 -0.000168991
0 0 -0.000170986
0 0 -0.000172415
0 0 -0.000173274
0 0 -0.000173561
0 0 -0.000173274
0 0 -0.000172415
0 0 -0.000170986
0 0 -0.000168991
0 0 -0.000166436
0 0 -0.000163329
0 0 -0.000159678
0 0 -0.000155497
0 0 -0.000150799
0 0 -0.000145601
0 0 -0.000139924
0 0 -0.000133789
0 0 -0.000127223
0 0 -0.000120258
0 0 -0.000112928
0 0 -0.000105272
0 0 -9.73364e-05
0 0 -8.9172e-05
0 0 -8.08366e-05
0 0 -7.23952e-05
0 0 -6.3921e-05
0 0 -5.54957e-05
0 0 -4.72105e-05
0 0 -3.91672e-05
0 0 -3.14788e-05
0 0 -2.42707e-05
0 0 -1.76819e-05
0 0 -1.1866e-05
0 0 -6.9927e-06
0 0 -3.24929e-06
0 0 -8.42412e-07
0 0 0
0 0 0
0 0 -7.81463e-07
0 0 -3.01358e-06
0 0 -6.48387e-06
0 0 -1.09999e-05
0 0 -1.63875e-05
0 0 -2.24887e-05
0 0 -2.91609e-05
0 0 -3.62751e-05
0 0 -4.37148e-05
0 0 -5.13752e-05
0 0 -5.91622e-05
0 0 -6.69913e-05
0 0 -7.47869e-05
0 0 -8.24818e-05
0 0 -9.0016e-05
0 0 -9.73364e-05
0 0 -0.000104396
0 0 -0.000111154
0 0 -0.000117572
0 0 -0.000123621
0 0 -0.000129271
0 0 -0.000134499
0 0 -0.000139284
0 0 -0.000143607
0 0 -0.000147455
0 0 -0.000150813
0 0 -0.000153672
0 0 -0.000156022
0 0 -0.000157857
0 0 -0.000159171
0 0 -0.000159961
0 0 -0.000160225
0 0 -0.000159961
0 0 -0.000159171
0 0 -0.000157857
0 0 -0.000156022
0 0 -0.000153672
0 0 -0.000150813
0 0 -0.000147455
0 0 -0.000143607
0 0 -0.000139284
0 0 -0.000134499
0 0 -0.000129271
0 0 -0.000123621
0 0 -0.000117572
0 0 -0.000111154
0 0 -0.000104396
0 0 -9.73364e-05
0 0 -9.0016e-05
0 0 -8.24818e-05
0 0 -7.47869e-05
0 0 -6.69913e-05
0 0 -5.91622e-05
0 0 -5.13752e-05
0 0 -4.37148e-05
0 0 -3.62751e-05
0 0 -2.91609e-05
0 0 -2.24887e-05
0 0 -1.63875e-05
0 0 -1.09999e-05
0 0 -6.48387e-06
0 0 -3.01358e-06
0 0 -7.81463e-07
0 0 0
0 0 0
0 0 -7.18071e-07
0 0 -2.76867e-06
0 0 -5.95579e-06
0 0 -1.01021e-05
0 0 -1.50469e-05
0 0 -2.0645e-05
0 0 -2.67648e-05
0 0 -3.32876e-05
0 0 -4.01062e-05
0 0 -4.71244e-05
0 0 -5.42555e-05
0 0 -6.14223e-05
0 0 -6.85554e-05
0 0 -7.55935e-05
0 0 -8.24818e-05
0 0 -8.9172e-05
0 0 -9.56214e-05
0 0 -0.000101792
0 0 -0.000107652
0 0 -0.000113172
0 0 -0.000118327
0 0 -0.000123095
0 0 -0.000127458
0 0 -0.0001314
0 0 -0.000134907
0 0 -0.000137967
0 0 -0.000140572
0 0 -0.000142713
0 0 -0.000144384
0 0 -0.000145581
0 0 -0.0001463
0 0 -0.00014654
0 0 -0.0001463
0 0 -0.000145581
0 0 -0.000144384
0 0 -0.000142713
0 0 -0.000140572
0 0 -0.000137967
0 0 -0.000134907
0 0 -0.0001314
0 0 -0.000127458
0 0 -0.000123095
0 0 -0.000118327
0 0 -0.000113172
0 0 -0.000107652
0 0 -0.000101792
0 0 -9.56214e-05
0 0 -8.9172e-05
0 0 -8.24818e-05
0 0 -7.55935e-05
0 0 -6.85554e-05
0 0 -6.14223e-05
0 0 -5.42555e-05
0 0 -4.71244e-05
0 0 -4.01062e-05
0 0 -3.32876e-05
0 0 -2.67648e-05
0 0 -2.0645e-05
0 0 -1.50469e-05
0 0 -1.01021e-05
0 0 -5.95579e-06
0 0 -2.76867e-06
0 0 -7.18071e-07
0 0 0
0 0 0
0 0 -6.52606e-07
0 0 -2.51603e-06
0 0 -5.41174e-06
0 0 -9.17817e-06
0 0 -1.3669e-05
0 0 -1.87517e-05
0 0 -2.43064e-05
0 0 -3.02249e-05
0 0 -3.64094e-05
0 0 -4.27723e-05
0 0 -4.9235e-05
0 0 -5.57269e-05
0 0 -6.21857e-05
0 0 -6.85554e-05
0 0 -7.47869e-05
0 0 -8.08366e-05
0 0 -8.66661e-05
0 0 -9.22418e-05
0 0 -9.75343e-05
0 0 -0.000102518
0 0 -0.000107171
0 0 -0.000111473
0 0 -0.000115408
0 0 -0.000118963
0 0 -0.000122125
0 0 -0.000124883
0 0 -0.000127231
0 0 -0.00012916
0 0 -0.000130666
0 0 -0.000131744
0 0 -0.000132392
0 0 -0.000132609
0 0 -0.000132392
0 0 -0.000131744
0 0 -0.000130666
0 0 -0.00012916
0 0 -0.000127231
0 0 -0.000124883
0 0 -0.000122125
0 0 -0.000118963
0 0 -0.000115408
0 0 -0.000111473
0 0 -0.000107171
0 0 -0.000102518
0 0 -9.75343e-05
0 0 -9.22418e-05
0 0 -8.66661e-05
0 0 -8.08366e-05
0 0 -7.47869e-05
0 0 -6.85554e-05
0 0 -6.21857e-05
0 0 -5.57269e-05
0 0 -4.9235e-05
0 0 -4.27723e-05
0 0 -3.64094e-05
0 0 -3.02249e-05
0 0 -2.43064e-05
0 0 -1.87517e-05
0 0 -1.3669e-05
0 0 -9.17817e-06
0 0 -5.41174e-06
0 0 -2.51603e-06
0 0 -6.52606e-07
0 0 0
0 0 0
0 0 -5.8551e-07
0 0 -2.25742e-06
0 0 -4.8556e-06
0 0 -8.23495e-06
0 0 -1.22639e-05
0 0 -1.68231e-05
0 0 -2.18044e-05
0 0 -2.71103e-05
0 0 -3.26527e-05
0 0 -3.83525e-05
0 0 -4.41391e-05
0 0 -4.99493e-05
0 0 -5.57269e-05
0 0 -6.14223e-05
0 0 -6.69913e-05
0 0 -7.23952e-05
0 0 -7.76002e-05
0 0 -8.25764e-05
0 0 -8.72979e-05
0 0 -9.17422e-05
0 0 -9.58897e-05
0 0 -9.97237e-05
0 0 -0.00010323
0 0 -0.000106395
0 0 -0.000109211
0 0 -0.000111666
0 0 -0.000113756
0 0 -0.000115473
0 0 -0.000116813
0 0 -0.000117772
0 0 -0.000118349
0 0 -0.000118541
0 0 -0.000118349
0 0 -0.000117772
0 0 -0.000116813
0 0 -0.000115473
0 0 -0.000113756
0 0 -0.000111666
0 0 -0.000109211
0 0 -0.000106395
0 0 -0.00010323
0 0 -9.97237e-05
0 0 -9.58897e-05
0 0 -9.17422e-05
0 0 -8.72979e-05
0 0 -8.25764e-05
0 0 -7.76002e-05
0 0 -7.23952e-05
0 0 -6.69913e-05
0 0 -6.14223e-05
0 0 -5.57269e-05
0 0 -4.99493e-05
0 0 -4.41391e-05
0 0 -3.83525e-05
0 0 -3.26527e-05
0 0 -2.71103e-05
0 0 -2.18044e-05
0 0 -1.68231e-05
0 0 -1.22639e-05
0 0 -8.23495e-06
0 0 -4.8556e-06
0 0 -2.25742e-06
0 0 -5.8551e-07
0 0 0
0 0 0
0 0 -5.17319e-07
0 0 -1.99494e-06
0 0 -4.29197e-06
0 0 -7.28035e-06
0 0 -1.08435e-05
0 0 -1.48755e-05
0 0 -1.92801e-05
0 0 -2.39705e-05
0 0 -2.88682e-05
0 0 -3.3903e-05
0 0 -3.90119e-05
0 0 -4.41391e-05
0 0 -4.9235e-05
0 0 -5.42555e-05
0 0 -5.91622e-05
0 0 -6.3921e-05
0 0 -6.85023e-05
0 0 -7.28802e-05
0 0 -7.70322e-05
0 0 -8.09387e-05
0 0 -8.45829e-05
0 0 -8.79504e-05
0 0 -9.10288e-05
0 0 -9.38077e-05
0 0 -9.62781e-05
0 0 -9.84327e-05
0 0 -0.000100265
0 0 -0.000101771
0 0 -0.000102946
0 0 -0.000103787
0 0 -0.000104293
0 0 -0.000104462
0 0 -0.000104293
0 0 -0.000103787
0 0 -0.000102946
0 0 -0.000101771
0 0 -0.000100265
0 0 -9.84327e-05
0 0 -9.62781e-05
0 0 -9.38077e-05
0 0 -9.10288e-05
0 0 -8.79504e-05
0 0 -8.45829e-05
0 0 -8.09387e-05
0 0 -7.70322e-05
0 0 -7.28802e-05
0 0 -6.85023e-05
0 0 -6.3921e-05
0 0 -5.91622e-05
0 0 -5.42555e-05
0 0 -4.9235e-05
0 0 -4.41391e-05
0 0 -3.90119e-05
0 0 -3.3903e-05
0 0 -2.88682e-05
0 0 -2.39705e-05
0 0 -1.92801e-05
0 0 -1.48755e-05
0 0 -1.08435e-05
0 0 -7.28035e-06
0 0 -4.29197e-06
0 0 -1.99494e-06
0 0 -5.17319e-07
0 0 0
0 0 0
0 0 -4.48675e-07
0 0 -1.7311e-06
0 0 -3.72633e-06
0 0 -6.32368e-06
0 0 -9.42181e-06
0 0 -1.29281e-05
0 0 -1.67584e-05
0 0 -2.08362e-05
0 0 -2.50929e-05
0 0 -2.94668e-05
0 0 -3.3903e-05
0 0 -3.83525e-05
0 0 -4.27723e-05
0 0 -4.71244e-05
0 0 -5.13752e-05
0 0 -5.54957e-05
0 0 -5.94603e-05
0 0 -6.32469e-05
0 0 -6.68363e-05
0 0 -7.02119e-05
0 0 -7.33596e-05
0 0 -7.62671e-05
0 0 -7.89241e-05
0 0 -8.13218e-05
0 0 -8.34527e-05
0 0 -8.53107e-05
0 0 -8.68908e-05
0 0 -8.81888e-05
0 0 -8.92015e-05
0 0 -8.99266e-05
0 0 -9.03623e-05
0 0 -9.05076e-05
0 0 -9.03623e-05
0 0 -8.99266e-05
0 0 -8.92015e-05
0 0 -8.81888e-05
0 0 -8.68908e-05
0 0 -8.53107e-05
0 0 -8.34527e-05
0 0 -8.13218e-05
0 0 -7.89241e-05
0 0 -7.62671e-05
0 0 -7.33596e-05
0 0 -7.02119e-05
0 0 -6.68363e-05
0 0 -6.32469e-05
0 0 -5.94603e-05
0 0 -5.54957e-05
0 0 -5.13752e-05
0 0 -4.71244e-05
0 0 -4.27723e-05
0 0 -3.83525e-05
0 0 -3.3903e-05
0 0 -2.94668e-05
0 0 -2.50929e-05
0 0 -2.08362e-05
0 0 -1.67584e-05
0 0 -1.29281e-05
0 0 -9.42181e-06
0 0 -6.32368e-06
0 0 -3.72633e-06
0 0 -1.7311e-06
0 0 -4.48675e-07
0 0 0
0 0 0
0 0 -3.80349e-07
0 0 -1.46889e-06
0 0 -3.16512e-06
0 0 -5.37588e-06
0 0 -8.01496e-06
0 0 -1.1003e-05
0 0 -1.42674e-05
0 0 -1.77424e-05
0 0 -2.13685e-05
0 0 -2.50929e-05
0 0 -2.88682e-05
0 0 -3.26527e-05
0 0 -3.64094e-05
0 0 -4.01062e-05
0 0 -4.37148e-05
0 0 -4.72105e-05
0 0 -5.0572e-05
0 0 -5.37807e-05
0 0 -5.68207e-05
0 0 -5.96782e-05
0 0 -6.23415e-05
0 0 -6.48006e-05
0 0 -6.70469e-05
0 0 -6.90733e-05
0 0 -7.08736e-05
0 0 -7.2443e-05
0 0 -7.37773e-05
0 0 -7.48732e-05
0 0 -7.57281e-05
0 0 -7.63402e-05
0 0 -7.67079e-05
0 0 -7.68306e-05
0 0 -7.67079e-05
0 0 -7.63402e-05
0 0 -7.57281e-05
0 0 -7.48732e-05
0 0 -7.37773e-05
0 0 -7.2443e-05
0 0 -7.08736e-05
0 0 -6.90733e-05
0 0 -6.70469e-05
0 0 -6.48006e-05
0 0 -6.23415e-05
0 0 -5.96782e-05
0 0 -5.68207e-05
0 0 -5.37807e-05
0 0 -5.0572e-05
0 0 -4.72105e-05
0 0 -4.37148e-05
0 0 -4.01062e-05
0 0 -3.64094e-05
0 0 -3.26527e-05
0 0 -2.88682e-05
0 0 -2.50929e-05
0 0 -2.13685e-05
0 0 -1.77424e-05
0 0 -1.42674e-05
0 0 -1.1003e-05
0 0 -8.01496e-06
0 0 -5.37588e-06
0 0 -3.16512e-06
0 0 -1.46889e-06
0 0 -3.80349e-07
0 0 0
0 0 0
0 0 -3.13272e-07
0 0 -1.21189e-06
0 0 -2.61598e-06
0 0 -4.44972e-06
0 0 -6.64168e-06
0 0 -9.12534e-06
0 0 -1.18395e-05
0 0 -1.47285e-05
0 0 -1.77424e-05
0 0 -2.08362e-05
0 0 -2.39705e-05
0 0 -2.71103e-05
0 0 -3.02249e-05
0 0 -3.32876e-05
0 0 -3.62751e-05
0 0 -3.91672e-05
0 0 -4.19464e-05
0 0 -4.45976e-05
0 0 -4.7108e-05
0 0 -4.94664e-05
0 0 -5.16635e-05
0 0 -5.36911e-05
0 0 -5.55425e-05
0 0 -5.7212e-05
0 0 -5.86948e-05
0 0 -5.9987e-05
0 0 -6.10853e-05
0 0 -6.19873e-05
0 0 -6.26908e-05
0 0 -6.31943e-05
0 0 -6.34969e-05
0 0 -6.35978e-05
0 0 -6.34969e-05
0 0 -6.31943e-05
0 0 -6.26908e-05
0 0 -6.19873e-05
0 0 -6.10853e-05
0 0 -5.9987e-05
0 0 -5.86948e-05
0 0 -5.7212e-05
0 0 -5.55425e-05
0 0 -5.36911e-05
0 0 -5.16635e-05
0 0 -4.94664e-05
0 0 -4.7108e-05
0 0 -4.45976e-05
0 0 -4.19464e-05
0 0 -3.91672e-05
0 0 -3.62751e-05
0 0 -3.32876e-05
0 0 -3.02249e-05
0 0 -2.71103e-05
0 0 -2.39705e-05
0 0 -2.08362e-05
0 0 -1.77424e-05
0 0 -1.47285e-05
0 0 -1.18395e-05
0 0 -9.12534e-06
0 0 -6.64168e-06
0 0 -4.44972e-06
0 0 -2.61598e-06
0 0 -1.21189e-06
0 0 -3.13272e-07
0 0 0
0 0 0
0 0 -2.48559e-07
0 0 -9.64354e-07
0 0 -2.08788e-06
0 0 -3.56004e-06
0 0 -5.32354e-06
0 0 -7.32408e-06
0 0 -9.51135e-06
0 0 -1.18395e-05
0 0 -1.42674e-05
0 0 -1.67584e-05
0 0 -1.92801e-05
0 0 -2.18044e-05
0 0 -2.43064e-05
0 0 -2.67648e-05
0 0 -2.91609e-05
0 0 -3.14788e-05
0 0 -3.37045e-05
0 0 -3.58263e-05
0 0 -3.78342e-05
0 0 -3.97193e-05
0 0 -4.14745e-05
0 0 -4.30936e-05
0 0 -4.45713e-05
0 0 -4.59032e-05
0 0 -4.70858e-05
0 0 -4.81161e-05
0 0 -4.89916e-05
0 0 -4.97104e-05
0 0 -5.02709e-05
0 0 -5.06721e-05
0 0 -5.09131e-05
0 0 -5.09935e-05
0 0 -5.09131e-05
0 0 -5.06721e-05
0 0 -5.02709e-05
0 0 -4.97104e-05
0 0 -4.89916e-05
0 0 -4.81161e-05
0 0 -4.70858e-05
0 0 -4.59032e-05
0 0 -4.45713e-05
0 0 -4.30936e-05
0 0 -4.14745e-05
0 0 -3.97193e-05
0 0 -3.78342e-05
0 0 -3.58263e-05
0 0 -3.37045e-05
0 0 -3.14788e-05
0 0 -2.91609e-05
0 0 -2.67648e-05
0 0 -2.43064e-05
0 0 -2.18044e-05
0 0 -1.92801e-05
0 0 -1.67584e-05
0 0 -1.42674e-05
0 0 -1.18395e-05
0 0 -9.51135e-06
0 0 -7.32408e-06
0 0 -5.32354e-06
0 0 -3.56004e-06
0 0 -2.08788e-06
0 0 -9.64354e-07
0 0 -2.48559e-07
0 0 0
0 0 0
0 0 -1.87554e-07
0 0 -7.31327e-07
0 0 -1.59129e-06
0 0 -2.72398e-06
0 0 -4.08512e-06
0 0 -5.63184e-06
0 0 -7.32408e-06
0 0 -9.12534e-06
0 0 -1.1003e-05
0 0 -1.29281e-05
0 0 -1.48755e-05
0 0 -1.68231e-05
0 0 -1.87517e-05
0 0 -2.0645e-05
0 0 -2.24887e-05
0 0 -2.42707e-05
0 0 -2.59805e-05
0 0 -2.76093e-05
0 0 -2.91495e-05
0 0 -3.05947e-05
0 0 -3.19395e-05
0 0 -3.31792e-05
0 0 -3.43103e-05
0 0 -3.53293e-05
0 0 -3.62337e-05
0 0 -3.70214e-05
0 0 -3.76905e-05
0 0 -3.82397e-05
0 0 -3.8668e-05
0 0 -3.89744e-05
0 0 -3.91585e-05
0 0 -3.92199e-05
0 0 -3.91585e-05
0 0 -3.89744e-05
0 0 -3.8668e-05
0 0 -3.82397e-05
0 0 -3.76905e-05
0 0 -3.70214e-05
0 0 -3.62337e-05
0 0 -3.53293e-05
0 0 -3.43103e-05
0 0 -3.31792e-05
0 0 -3.19395e-05
0 0 -3.05947e-05
0 0 -2.91495e-05
0 0 -2.76093e-05
0 0 -2.59805e-05
0 0 -2.42707e-05
0 0 -2.24887e-05
0 0 -2.0645e-05
0 0 -1.87517e-05
0 0 -1.68231e-05
0 0 -1.48755e-05
0 0 -1.29281e-05
0 0 -1.1003e-05
0 0 -9.12534e-06
0 0 -7.32408e-06
0 0 -5.63184e-06
0 0 -4.08512e-06
0 0 -2.72398e-06
0 0 -1.59129e-06
0 0 -7.31327e-07
0 0 -1.87554e-07
0 0 0
0 0 0
0 0 -1.31868e-07
0 0 -5.18762e-07
0 0 -1.13837e-06
0 0 -1.96104e-06
0 0 -2.95412e-06
0 0 -4.08512e-06
0 0 -5.32354e-06
0 0 -6.64168e-06
0 0 -8.01496e-06
0 0 -9.42181e-06
0 0 -1.08435e-05
0 0 -1.22639e-05
0 0 -1.3669e-05
0 0 -1.50469e-05
0 0 -1.63875e-05
0 0 -1.76819e-05
0 0 -1.89228e-05
0 0 -2.0104e-05
0 0 -2.12201e-05
0 0 -2.22666e-05
0 0 -2.32398e-05
0 0 -2.41365e-05
0 0 -2.49541e-05
0 0 -2.56905e-05
0 0 -2.63437e-05
0 0 -2.69124e-05
0 0 -2.73954e-05
0 0 -2.77918e-05
0 0 -2.81008e-05
0 0 -2.83218e-05
0 0 -2.84546e-05
0 0 -2.84989e-05
0 0 -2.84546e-05
0 0 -2.83218e-05
0 0 -2.81008e-05
0 0 -2.77918e-05
0 0 -2.73954e-05
0 0 -2.69124e-05
0 0 -2.63437e-05
0 0 -2.56905e-05
0 0 -2.49541e-05
0 0 -2.41365e-05
0 0 -2.32398e-05
0 0 -2.22666e-05
0 0 -2.12201e-05
0 0 -2.0104e-05
0 0 -1.89228e-05
0 0 -1.76819e-05
0 0 -1.63875e-05
0 0 -1.50469e-05
0 0 -1.3669e-05
0 0 -1.22639e-05
0 0 -1.08435e-05
0 0 -9.42181e-06
0 0 -8.01496e-06
0 0 -6.64168e-06
0 0 -5.32354e-06
0 0 -4.08512e-06
0 0 -2.95412e-06
0 0 -1.96104e-06
0 0 -1.13837e-06
0 0 -5.18762e-07
0 0 -1.31868e-07
0 0 0
0 0 0
0 0 -8.34097e-08
0 0 -3.33564e-07
0 0 -7.42862e-07
0 0 -1.29293e-06
0 0 -1.96104e-06
0 0 -2.72398e-06
0 0 -3.56004e-06
0 0 -4.44972e-06
0 0 -5.37588e-06
0 0 -6.32368e-06
0 0 -7.28035e-06
0 0 -8.23495e-06
0 0 -9.17817e-06
0 0 -1.01021e-05
0 0 -1.09999e-05
0 0 -1.1866e-05
0 0 -1.26955e-05
0 0 -1.34844e-05
0 0 -1.42291e-05
0 0 -1.4927e-05
0 0 -1.55755e-05
0 0 -1.61727e-05
0 0 -1.67169e-05
0 0 -1.72068e-05
0 0 -1.76413e-05
0 0 -1.80193e-05
0 0 -1.83403e-05
0 0 -1.86037e-05
0 0 -1.88089e-05
0 0 -1.89557e-05
0 0 -1.90439e-05
0 0 -1.90733e-05
0 0 -1.90439e-05
0 0 -1.89557e-05
0 0 -1.88089e-05
0 0 -1.86037e-05
0 0 -1.83403e-05
0 0 -1.80193e-05
0 0 -1.76413e-05
0 0 -1.72068e-05
0 0 -1.67169e-05
0 0 -1.61727e-05
0 0 -1.55755e-05
0 0 -1.4927e-05
0 0 -1.42291e-05
0 0 -1.34844e-05
0 0 -1.26955e-05
0 0 -1.1866e-05
0 0 -1.09999e-05
0 0 -1.01021e-05
0 0 -9.17817e-06
0 0 -8.23495e-06
0 0 -7.28035e-06
0 0 -6.32368e-06
0 0 -5.37588e-06
0 0 -4.44972e-06
0 0 -3.56004e-06
0 0 -2.72398e-06
0 0 -1.96104e-06
0 0 -1.29293e-06
0 0 -7.42862e-07
0 0 -3.33564e-07
0 0 -8.34097e-08
0 0 0
0 0 0
0 0 -4.43825e-08
0 0 -1.83449e-07
0 0 -4.19692e-07
0 0 -7.42862e-07
0 0 -1.13837e-06
0 0 -1.59129e-06
0 0 -2.08788e-06
0 0 -2.61598e-06
0 0 -3.16512e-06
0 0 -3.72633e-06
0 0 -4.29197e-06
0 0 -4.8556e-06
0 0 -5.41174e-06
0 0 -5.95579e-06
0 0 -6.48387e-06
0 0 -6.9927e-06
0 0 -7.47954e-06
0 0 -7.94209e-06
0 0 -8.37842e-06
0 0 -8.78695e-06
0 0 -9.16632e-06
0 0 -9.51546e-06
0 0 -9.83344e-06
0 0 -1.01195e-05
0 0 -1.03731e-05
0 0 -1.05937e-05
0 0 -1.0781e-05
0 0 -1.09346e-05
0 0 -1.10542e-05
0 0 -1.11398e-05
0 0 -1.11912e-05
0 0 -1.12084e-05
0 0 -1.11912e-05
0 0 -1.11398e-05
0 0 -1.10542e-05
0 0 -1.09346e-05
0 0 -1.0781e-05
0 0 -1.05937e-05
0 0 -1.03731e-05
0 0 -1.01195e-05
0 0 -9.83344e-06
0 0 -9.51546e-06
0 0 -9.16632e-06
0 0 -8.78695e-06
0 0 -8.37842e-06
0 0 -7.94209e-06
0 0 -7.47954e-06
0 0 -6.9927e-06
0 0 -6.48387e-06
0 0 -5.95579e-06
0 0 -5.41174e-06
0 0 -4.8556e-06
0 0 -4.29197e-06
0 0 -3.72633e-06
0 0 -3.16512e-06
0 0 -2.61598e-06
0 0 -2.08788e-06
0 0 -1.59129e-06
0 0 -1.13837e-06
0 0 -7.42862e-07
0 0 -4.19692e-07
0 0 -1.83449e-07
0 0 -4.43825e-08
0 0 0
0 0 0
0 0 -1.71196e-08
0 0 -7.62288e-08
0 0 -1.83449e-07
0 0 -3.33564e-07
0 0 -5.18762e-07
0 0 -7.31327e-07
0 0 -9.64354e-07
0 0 -1.21189e-06
0 0 -1.46889e-06
0 0 -1.7311e-06
0 0 -1.99494e-06
0 0 -2.25742e-06
0 0 -2.51603e-06
0 0 -2.76867e-06
0 0 -3.01358e-06
0 0 -3.24929e-06
0 0 -3.47457e-06
0 0 -3.68841e-06
0 0 -3.88995e-06
0 0 -4.0785e-06
0 0 -4.25347e-06
0 0 -4.41439e-06
0 0 -4.56086e-06
0 0 -4.69258e-06
0 0 -4.80929e-06
0 0 -4.91078e-06
0 0 -4.9969e-06
0 0 -5.06751e-06
0 0 -5.12252e-06
0 0 -5.16186e-06
0 0 -5.18548e-06
0 0 -5.19336e-06
0 0 -5.18548e-06
0 0 -5.16186e-06
0 0 -5.12252e-06
0 0 -5.06751e-06
0 0 -4.9969e-06
0 0 -4.91078e-06
0 0 -4.80929e-06
0 0 -4.69258e-06
0 0 -4.56086e-06
0 0 -4.41439e-06
0 0 -4.25347e-06
0 0 -4.0785e-06
0 0 -3.88995e-06
0 0 -3.68841e-06
0 0 -3.47457e-06
0 0 -3.24929e-06
0 0 -3.01358e-06
0 0 -2.76867e-06
0 0 -2.51603e-06
0 0 -2.25742e-06
0 0 -1.99494e-06
0 0 -1.7311e-06
0 0 -1.46889e-06
0 0 -1.21189e-06
0 0 -9.64354e-07
0 0 -7.31327e-07
0 0 -5.18762e-07
0 0 -3.33564e-07
0 0 -1.83449e-07
0 0 -7.62288e-08
0 0 -1.71196e-08
0 0 0
0 0 0
0 0 -3.35372e-09
0 0 -1.71196e-08
0 0 -4.43825e-08
0 0 -8.34097e-08
0 0 -1.31868e-07
0 0 -1.87554e-07
0 0 -2.48559e-07
0 0 -3.13272e-07
0 0 -3.80349e-07
0 0 -4.48675e-07
0 0 -5.17319e-07
0 0 -5.8551e-07
0 0 -6.52606e-07
0 0 -7.18071e-07
0 0 -7.81463e-07
0 0 -8.42412e-07
0 0 -9.00611e-07
0 0 -9.55808e-07
0 0 -1.00779e-06
0 0 -1.05639e-06
0 0 -1.10146e-06
0 0 -1.14289e-06
0 0 -1.18059e-06
0 0 -1.21447e-06
0 0 -1.24448e-06
0 0 -1.27057e-06
0 0 -1.2927e-06
0 0 -1.31084e-06
0 0 -1.32497e-06
0 0 -1.33507e-06
0 0 -1.34114e-06
0 0 -1.34316e-06
0 0 -1.34114e-06
0 0 -1.33507e-06
0 0 -1.32497e-06
0 0 -1.31084e-06
0 0 -1.2927e-06
0 0 -1.27057e-06
0 0 -1.24448e-06
0 0 -1.21447e-06
0 0 -1.18059e-06
0 0 -1.14289e-06
0 0 -1.10146e-06
0 0 -1.05639e-06
0 0 -1.00779e-06
0 0 -9.55808e-07
0 0 -9.00611e-07
0 0 -8.42412e-07
0 0 -7.81463e-07
0 0 -7.18071e-07
0 0 -6.52606e-07
0 0 -5.8551e-07
0 0 -5.17319e-07
0 0 -4.48675e-07
0 0 -3.80349e-07
0 0 -3.13272e-07
0 0 -2.48559e-07
0 0 -1.87554e-07
0 0 -1.31868e-07
0 0 -8.34097e-08
0 0 -4.43825e-08
0 0 -1.71196e-08
0 0 -3.35372e-09
0 0 0
0 0 0
0 0 0
0 0 0
0 0 0
0 0 0
0 0 0
0 0 0
0 0 0
0 0 0
0 0 0
0 0 0
0 0 0
0 0 0
0 0 0
0 0 0
0 0 0
0 0 0
0 0 0
0 0 0
0 0 0
0 0 0
0 0 0
0 0 0
0 0 0
0 0 0
0 0 0
0 0 0
0 0 0
0 0 0
0 0 0
0 0 0
0 0 0
0 0 0
0 0 0
0 0 0
0 0 0
0 0 0
0 0 0
0 0 0
0 0 0
0 0 0
0 0 0
0 0 0
0 0 0
0 0 0
0 0 0
0 0 0
0 0 0
0 0 0
0 0 0
0 0 0
0 0 0
0 0 0
0 0 0
0 0 0
0 0 0
0 0 0
0 0 0
0 0 0
0 0 0
0 0 0
0 0 0
0 0 0
0 0 0
0 0 0
CELL_DATA 4096
SCALARS Stress float 1
LOOKUP_TABLE default
-0.0051669
-0.0155217
-0.0292985
-0.0512111
-0.0805853
-0.115954
-0.155935
-0.199245
-0.244846
-0.291832
-0.339477
-0.387155
-0.434363
-0.480669
-0.525724
-0.569231
-0.610949
-0.650672
-0.688236
-0.7235
-0.756353
-0.786699
-0.814463
-0.839584
-0.862012
-0.881707
-0.898638
-0.912779
-0.924113
-0.932624
-0.938304
-0.941145
-0.941145
-0.938304
-0.932624
-0.924113
-0.912779
-0.898638
-0.881707
-0.862012
-0.839584
-0.814463
-0.786699
-0.756353
-0.7235
-0.688236
-0.650672
-0.610949
-0.569231
-0.525724
-0.480669
-0.434363
-0.387155
-0.339477
-0.291832
-0.244846
-0.199245
-0.155935
-0.115954
-0.0805853
-0.0512111
-0.0292985
-0.0155217
-0.0051669
-0.0266174
-0.0484739
-0.0613492
-0.0761179
-0.0956742
-0.120163
-0.148989
-0.181309
-0.216301
-0.253188
-0.291298
-0.330035
-0.368898
-0.407447
-0.445317
-0.48219
-0.517804
-0.55193
-0.584381
-0.614994
-0.643637
-0.670194
-0.694573
-0.716695
-0.736495
-0.753919
-0.768926
-0.781479
-0.791552
-0.799124
-0.80418
-0.806711
-0.806711
-0.80418
-0.799124
-0.791552
-0.781479
-0.768926
-0.753919
-0.736495
-0.716695
-0.694573
-0.670194
-0.643637
-0.614994
-0.584381
-0.55193
-0.517804
-0.48219
-0.445317
-0.407447
-0.368898
-0.330035
-0.291298
-0.253188
-0.216301
-0.181309
-0.148989
-0.120163
-0.0956742
-0.0761179
-0.0613492
-0.0484739
-0.0266174
-0.0745282
-0.0984246
-0.107085
-0.113
-0.121322
-0.133673
-0.15022
-0.170554
-0.194066
-0.220096
-0.24802
-0.277255
-0.307292
-0.337673
-0.368009
-0.397952
-0.427211
-0.455528
-0.482688
-0.5085
-0.532808
-0.555472
-0.57638
-0.595431
-0.612545
-0.627652
-0.640697
-0.651633
-0.660424
-0.66704
-0.671462
-0.673677
-0.673677
-0.671462
-0.66704
-0.660424
-0.651633
-0.640697
-0.627652
-0.612545
-0.595431
-0.57638
-0.555472
-0.532808
-0.5085
-0.482688
-0.455528
-0.427211
-0.397952
-0.368009
-0.337673
-0.307292
-0.277255
-0.24802
-0.220096
-0.194066
-0.170554
-0.15022
-0.133673
-0.121322
-0.113
-0.107085
-0.0984246
-0.0745282
-0.151764
-0.165284
-0.164867
-0.159905
-0.155885
-0.155246
-0.15878
-0.166447
-0.177859
-0.192466
-0.209694
-0.228974
-0.249784
-0.271645
-0.294138
-0.316884
-0.339556
-0.361865
-0.383561
-0.404427
-0.424274
-0.44294
-0.460287
-0.476193
-0.490559
-0.503298
-0.514341
-0.523627
-0.53111
-0.536753
-0.540529
-0.542422
-0.542422
-0.540529
-0.536753
-0.53111
-0.523627
-0.514341
-0.503298
-0.490559
-0.476193
-0.460287
-0.44294
-0.424274
-0.404427
-0.383561
-0.361865
-0.339556
-0.316884
-0.294138
-0.271645
-0.249784
-0.228974
-0.209694
-0.192466
-0.177859
-0.166447
-0.15878
-0.155246
-0.155885
-0.159905
-0.164867
-0.165284
-0.151764
-0.253832
-0.248926
-0.23416
-0.215761
-0.198146
-0.183794
-0.173781
-0.168333
-0.16723
-0.170027
-0.176196
-0.185183
-0.196458
-0.209521
-0.22392
-0.239244
-0.25513
-0.271255
-0.287335
-0.30312
-0.318392
-0.33296
-0.34666
-0.359349
-0.370906
-0.381227
-0.390225
-0.397828
-0.403978
-0.408629
-0.411748
-0.413313
-0.413313
-0.411748
-0.408629
-0.403978
-0.397828
-0.390225
-0.381227
-0.370906
-0.359349
-0.34666
-0.33296
-0.318392
-0.30312
-0.287335
-0.271255
-0.25513
-0.239244
-0.22392
-0.209521
-0.196458
-0.185183
-0.176196
-0.170027
-0.16723
-0.168333
-0.173781
-0.183794
-0.198146
-0.215761
-0.23416
-0.248926
-0.253832
-0.375449
-0.347389
-0.314283
-0.279901
-0.247299
-0.218477
-0.194463
-0.175572
-0.161683
-0.152421
-0.147295
-0.145763
-0.147288
-0.151348
-0.157464
-0.165193
-0.174136
-0.183934
-0.194271
-0.204861
-0.215457
-0.22584
-0.235818
-0.245224
-0.253917
-0.261772
-0.268687
-0.274575
-0.279367
-0.283008
-0.285457
-0.286688
-0.286688
-0.285457
-0.283008
-0.279367
-0.274575
-0.268687
-0.261772
-0.253917
-0.245224
-0.235818
-0.22584
-0.215457
-0.204861
-0.194271
-0.183934
-0.174136
-0.165193
-0.157464
-0.151348
-0.147288
-0.145763
-0.147295
-0.152421
-0.161683
-0.175572
-0.194463
-0.218477
-0.247299
-0.279901
-0.314283
-0.347389
-0.375449
-0.511831
-0.458012
-0.403949
-0.351555
-0.302669
-0.258625
-0.220184
-0.187592
-0.160737
-0.139268
-0.122711
-0.110529
-0.102172
-0.0971018
-0.0948101
-0.0948233
-0.0967099
-0.100077
-0.104573
-0.109881
-0.115722
-0.121847
-0.12804
-0.134109
-0.13989
-0.145239
-0.150038
-0.154184
-0.157597
-0.160211
-0.16198
-0.162873
-0.162873
-0.16198
-0.160211
-0.157597
-0.154184
-0.150038
-0.145239
-0.13989
-0.134109
-0.12804
-0.121847
-0.115722
-0.109881
-0.104573
-0.100077
-0.0967099
-0.0948233
-0.0948101
-0.0971018
-0.102172
-0.110529
-0.122711
-0.139268
-0.160737
-0.187592
-0.220184
-0.258625
-0.302669
-0.351555
-0.403949
-0.458012
-0.511831
-0.658836
-0.578115
-0.501548
-0.429756
-0.363557
-0.303638
-0.250389
-0.203887
-0.163947
-0.130197
-0.102151
-0.0792616
-0.0609652
-0.0467017
-0.0359369
-0.0281678
-0.0229306
-0.0198
-0.0183914
-0.0183572
-0.0193875
-0.0212055
-0.0235671
-0.0262574
-0.0290895
-0.0319017
-0.0345566
-0.036939
-0.038955
-0.0405306
-0.041611
-0.0421602
-0.0421602
-0.041611
-0.0405306
-0.038955
-0.036939
-0.0345566
-0.0319017
-0.0290895
-0.0262574
-0.0235671
-0.0212055
-0.0193875
-0.0183572
-0.0183914
-0.0198
-0.0229306
-0.0281678
-0.0359369
-0.0467017
-0.0609652
-0.0792616
-0.102151
-0.130197
-0.163947
-0.203887
-0.250389
-0.303638
-0.363557
-0.429756
-0.501548
-0.578115
-0.658836
-0.81301
-0.705143
-0.605364
-0.51336
-0.429168
-0.352893
-0.284548
-0.223985
-0.170898
-0.12485
-0.0853173
-0.0517293
-0.0234972
-3.76209e-05
0.0192109
0.0347799
0.0471638
0.0568188
0.0641608
0.0695675
0.0733784
0.0758975
0.0773949
0.0781092
0.0782488
0.0779946
0.0775009
0.0768973
0.0762899
0.0757624
0.0753766
0.0751735
0.0751735
0.0753766
0.0757624
0.0762899
0.0768973
0.0775009
0.0779946
0.0782488
0.0781092
0.0773949
0.0758975
0.0733784
0.0695675
0.0641608
0.0568188
0.0471638
0.0347799
0.0192109
-3.76209e-05
-0.0234972
-0.0517293
-0.0853173
-0.12485
-0.170898
-0.223985
-0.284548
-0.352893
-0.429168
-0.51336
-0.605364
-0.705143
-0.81301
-0.971453
-0.83683
-0.713721
-0.601177
-0.49864
-0.405737
-0.322129
-0.247433
-0.181194
-0.122884
-0.0719219
-0.0276952
0.0104159
0.0430235
0.0707177
0.0940588
0.113571
0.129739
0.14301
0.15379
0.162446
0.169309
0.174673
0.178801
0.181922
0.184234
0.18591
0.187092
0.187899
0.188424
0.188736
0.188881
0.188881
0.188736
0.188424
0.187899
0.187092
0.18591
0.184234
0.181922
0.178801
0.174673
0.169309
0.162446
0.15379
0.14301
0.129739
0.113571
0.0940588
0.0707177
0.0430235
0.0104159
-0.0276952
-0.0719219
-0.122884
-0.181194
-0.247433
-0.322129
-0.405737
-0.49864
-0.601177
-0.713721
-0.83683
-0.971453
-1.13177
-0.971159
-0.825038
-0.692007
-0.571072
-0.461476
-0.362578
-0.273772
-0.194446
-0.123966
-0.0616795
-0.00692288
0.0409637
0.0826255
0.118684
0.149727
0.17631
0.198945
0.218108
0.234232
0.247712
0.258902
0.268121
0.275654
0.281749
0.286625
0.290467
0.293434
0.295655
0.297232
0.298242
0.298734
0.298734
0.298242
0.297232
0.295655
0.293434
0.290467
0.286625
0.281749
0.275654
0.268121
0.258902
0.247712
0.234232
0.218108
0.198945
0.17631
0.149727
0.118684
0.0826255
0.0409637
-0.00692288
-0.0616795
-0.123966
-0.194446
-0.273772
-0.362578
-0.461476
-0.571072
-0.692007
-0.825038
-0.971159
-1.13177
-1.29196
-1.1064
-0.937885
-0.784713
-0.645572
-0.51941
-0.405333
-0.302538
-0.210262
-0.127763
-0.0543076
0.0108252
0.0683409
0.118922
0.163222
0.201861
0.235421
0.264444
0.289432
0.310843
0.329098
0.344577
0.357619
0.368531
0.37758
0.385001
0.390997
0.395738
0.399365
0.401989
0.403692
0.40453
0.40453
0.403692
0.401989
0.399365
0.395738
0.390997
0.385001
0.37758
0.368531
0.357619
0.344577
0.329098
0.310843
0.289432
0.264444
0.235421
0.201861
0.163222
0.118922
0.0683409
0.0108252
-0.0543076
-0.127763
-0.210262
-0.302538
-0.405333
-0.51941
-0.645572
-0.784713
-0.937885
-1.1064
-1.29196
-1.45035
-1.24105
-1.05097
-0.878222
-0.72127
-0.578836
-0.449824
-0.333262
-0.228251
-0.133943
-0.0495247
0.0257859
0.0927435
0.15207
0.204455
0.250547
0.290958
0.326258
0.356973
0.383589
0.406548
0.426253
0.443067
0.457314
0.469281
0.479218
0.487343
0.493839
0.498856
0.502516
0.504906
0.506087
0.506087
0.504906
0.502516
0.498856
0.493839
0.487343
0.479218
0.469281
0.457314
0.443067
0.426253
0.406548
0.383589
0.356973
0.326258
0.290958
0.250547
0.204455
0.15207
0.0927435
0.0257859
-0.0495247
-0.133943
-0.228251
-0.333262
-0.449824
-0.578836
-0.72127
-0.878222
-1.05097
-1.24105
-1.45035
-1.60558
-1.37382
-1.16315
-0.97156
-0.797348
-0.639075
-0.495489
-0.365476
-0.248018
-0.142173
-0.0470489
0.0381975
0.114371
0.182233
0.24251
0.295881
0.342987
0.384423
0.420742
0.452453
0.480022
0.503872
0.524387
0.541908
0.556741
0.569152
0.57937
0.587592
0.593979
0.598658
0.601725
0.603242
0.603242
0.601725
0.598658
0.593979
0.587592
0.57937
0.569152
0.556741
0.541908
0.524387
0.503872
0.480022
0.452453
0.420742
0.384423
0.342987
0.295881
0.24251
0.182233
0.114371
0.0381975
-0.0470489
-0.142173
-0.248018
-0.365476
-0.495489
-0.639075
-0.797348
-0.97156
-1.16315
-1.37382
-1.60558
-1.75648
-1.50362
-1.27343
-1.06384
-0.873041
-0.69948
-0.541781
-0.398719
-0.269176
-0.152123
-0.0465996
0.0482975
0.133421
0.209575
0.277518
0.337963
0.391578
0.438984
0.480759
0.517433
0.549494
0.577387
0.601514
0.622233
0.639867
0.654695
0.666961
0.676872
0.684599
0.690276
0.694005
0.695853
0.695853
0.694005
0.690276
0.684599
0.676872
0.666961
0.654695
0.639867
0.622233
0.601514
0.577387
0.549494
0.517433
0.480759
0.438984
0.391578
0.337963
0.277518
0.209575
0.133421
0.0482975
-0.0465996
-0.152123
-0.269176
-0.398719
-0.541781
-0.69948
-0.873041
-1.06384
-1.27343
-1.50362
-1.75648
-1.90211
-1.62951
-1.38093
-1.15427
-0.947651
-0.759442
-0.588178
-0.432544
-0.291341
-0.163468
-0.0478985
0.0563228
0.150095
0.234262
0.309617
0.376902
0.436813
0.489997
0.537054
0.578537
0.614954
0.646769
0.6744
0.698226
0.71858
0.735759
0.750017
0.761571
0.770601
0.77725
0.781624
0.783793
0.783793
0.781624
0.77725
0.770601
0.761571
0.750017
0.735759
0.71858
0.698226
0.6744
0.646769
0.614954
0.578537
0.537054
0.489997
0.436813
0.376902
0.309617
0.234262
0.150095
0.0563228
-0.0478985
-0.163468
-0.291341
-0.432544
-0.588178
-0.759442
-0.947651
-1.15427
-1.38093
-1.62951
-1.90211
-2.04166
-1.7507
-1.4849
-1.24214
-1.02054
-0.818399
-0.634187
-0.466524
-0.314145
-0.175888
-0.0506723
0.0625068
0.164591
0.25646
0.338941
0.412806
0.478775
0.537521
0.589665
0.635781
0.676397
0.711995
0.743009
0.769834
0.792817
0.812267
0.828451
0.841594
0.851886
0.859475
0.864473
0.866953
0.866953
0.864473
0.859475
0.851886
0.841594
0.828451
0.812267
0.792817
0.769834
0.743009
0.711995
0.676397
0.635781
0.589665
0.537521
0.478775
0.412806
0.338941
0.25646
0.164591
0.0625068
-0.0506723
-0.175888
-0.314145
-0.466524
-0.634187
-0.818399
-1.02054
-1.24214
-1.4849
-1.7507
-2.04166
-2.17448
-1.86651
-1.58467
-1.32685
-1.09114
-0.875834
-0.679348
-0.500253
-0.337234
-0.189077
-0.0546549
0.0670787
0.177104
0.276335
0.36563
0.445786
0.517552
0.581621
0.638636
0.689191
0.733832
0.773056
0.807316
0.837019
0.862526
0.884158
0.902192
0.916863
0.928368
0.936861
0.942459
0.945239
0.945239
0.942459
0.936861
0.928368
0.916863
0.902192
0.884158
0.862526
0.837019
0.807316
0.773056
0.733832
0.689191
0.638636
0.581621
0.517552
0.445786
0.36563
0.276335
0.177104
0.0670787
-0.0546549
-0.189077
-0.337234
-0.500253
-0.679348
-0.875834
-1.09114
-1.32685
-1.58467
-1.86651
-2.17448
-2.30003
-1.97639
-1.67967
-1.40783
-1.15894
-0.931278
-0.723237
-0.533354
-0.360272
-0.202739
-0.0595897
0.0702605
0.187825
0.294049
0.389818
0.475956
0.553233
0.622365
0.684016
0.738797
0.78727
0.82995
0.867304
0.899751
0.927666
0.95138
0.97118
0.98731
0.999973
1.00933
1.0155
1.01857
1.01857
1.0155
1.00933
0.999973
0.98731
0.97118
0.95138
0.927666
0.899751
0.867304
0.82995
0.78727
0.738797
0.684016
0.622365
0.553233
0.475956
0.389818
0.294049
0.187825
0.0702605
-0.0595897
-0.202739
-0.360272
-0.533354
-0.723237
-0.931278
-1.15894
-1.40783
-1.67967
-1.97639
-2.30003
-2.41786
-2.07984
-1.76944
-1.48461
-1.22348
-0.984307
-0.765467
-0.565475
-0.382947
-0.216598
-0.0652322
0.0722659
0.196939
0.30976
0.411639
0.503425
0.585908
0.659825
0.725857
0.784633
0.836732
0.882682
0.922963
0.958009
0.988205
1.01389
1.03537
1.05288
1.06664
1.07682
1.08353
1.08687
1.08687
1.08353
1.07682
1.06664
1.05288
1.03537
1.01389
0.988205
0.958009
0.922963
0.882682
0.836732
0.784633
0.725857
0.659825
0.585908
0.503425
0.411639
0.30976
0.196939
0.0722659
-0.0652322
-0.216598
-0.382947
-0.565475
-0.765467
-0.984307
-1.22348
-1.48461
-1.76944
-2.07984
-2.41786
-2.52759
-2.17647
-1.85353
-1.55679
-1.28437
-1.03454
-0.805685
-0.596295
-0.404966
-0.230393
-0.0713514
0.073298
0.204623
0.323621
0.431224
0.528302
0.615666
0.694069
0.764211
0.826736
0.882239
0.931259
0.974292
1.01178
1.04412
1.07166
1.09471
1.11352
1.12832
1.13927
1.14649
1.15009
1.15009
1.14649
1.13927
1.12832
1.11352
1.09471
1.07166
1.04412
1.01178
0.974292
0.931259
0.882239
0.826736
0.764211
0.694069
0.615666
0.528302
0.431224
0.323621
0.204623
0.073298
-0.0713514
-0.230393
-0.404966
-0.596295
-0.805685
-1.03454
-1.28437
-1.55679
-1.85353
-2.17647
-2.52759
-2.62893
-2.26595
-1.93162
-1.624
-1.34125
-1.08165
-0.843576
-0.62552
-0.426064
-0.243881
-0.0777312
0.0735479
0.211045
0.335777
0.448697
0.550692
0.642593
0.725169
0.799134
0.865148
0.923818
0.975697
1.02129
1.06105
1.09539
1.12466
1.14918
1.16921
1.18496
1.19663
1.20433
1.20817
1.20817
1.20433
1.19663
1.18496
1.16921
1.14918
1.12466
1.09539
1.06105
1.02129
0.975697
0.923818
0.865148
0.799134
0.725169
0.642593
0.550692
0.448697
0.335777
0.211045
0.0735479
-0.0777312
-0.243881
-0.426064
-0.62552
-0.843576
-1.08165
-1.34125
-1.624
-1.93162
-2.26595
-2.62893
-2.72163
-2.34798
-2.00338
-1.68593
-1.39381
-1.12533
-0.878854
-0.652886
-0.445995
-0.256842
-0.084172
0.0731937
0.216361
0.346365
0.464176
0.570697
0.666774
0.753192
0.830679
0.899908
0.961497
1.01601
1.06397
1.10583
1.14201
1.17288
1.19875
1.21989
1.23654
1.24887
1.25702
1.26107
1.26107
1.25702
1.24887
1.23654
1.21989
1.19875
1.17288
1.14201
1.10583
1.06397
1.01601
0.961497
0.899908
0.830679
0.753192
0.666774
0.570697
0.464176
0.346365
0.216361
0.0731937
-0.084172
-0.256842
-0.445995
-0.652886
-0.878854
-1.12533
-1.39381
-1.68593
-2.00338
-2.34798
-2.72163
-2.80549
-2.42234
-2.06858
-1.74232
-1.44179
-1.16531
-0.911272
-0.678158
-0.46454
-0.269074
-0.0904912
0.0723993
0.220718
0.355514
0.477772
0.588411
0.688289
0.778205
0.858899
0.931056
0.995304
1.05222
1.10233
1.1461
1.18396
1.21629
1.24339
1.26556
1.28302
1.29596
1.30451
1.30876
1.30876
1.30451
1.29596
1.28302
1.26556
1.24339
1.21629
1.18396
1.1461
1.10233
1.05222
0.995304
0.931056
0.858899
0.778205
0.688289
0.588411
0.477772
0.355514
0.220718
0.0723993
-0.0904912
-0.269074
-0.46454
-0.678158
-0.911272
-1.16531
-1.44179
-1.74232
-2.06858
-2.42234
-2.80549
-2.88035
-2.48884
-2.12699
-1.79294
-1.48497
-1.20139
-0.940609
-0.701125
-0.481504
-0.280396
-0.0965239
0.0713134
0.224248
0.36334
0.489588
0.603921
0.707212
0.800268
0.883843
0.95863
1.02527
1.08434
1.13639
1.18188
1.22126
1.25489
1.2831
1.30619
1.32438
1.33786
1.34677
1.3512
1.3512
1.34677
1.33786
1.32438
1.30619
1.2831
1.25489
1.22126
1.18188
1.13639
1.08434
1.02527
0.95863
0.883843
0.800268
0.707212
0.603921
0.489588
0.36334
0.224248
0.0713134
-0.0965239
-0.280396
-0.481504
-0.701125
-0.940609
-1.20139
-1.48497
-1.79294
-2.12699
-2.48884
-2.88035
-2.94607
-2.54733
-2.17844
-1.83761
-1.52314
-1.23335
-0.966675
-0.721607
-0.496716
-0.290649
-0.102123
0.0700693
0.22707
0.36995
0.499716
0.617309
0.723611
0.81944
0.905559
0.982669
1.05142
1.1124
1.16616
1.21317
1.25388
1.28867
1.31787
1.34177
1.3606
1.37457
1.3838
1.38839
1.38839
1.3838
1.37457
1.3606
1.34177
1.31787
1.28867
1.25388
1.21317
1.16616
1.1124
1.05142
0.982669
0.905559
0.81944
0.723611
0.617309
0.499716
0.36995
0.22707
0.0700693
-0.102123
-0.290649
-0.496716
-0.721607
-0.966675
-1.23335
-1.52314
-1.83761
-2.17844
-2.54733
-2.94607
-3.00257
-2.59766
-2.22278
-1.87617
-1.55614
-1.26104
-0.989307
-0.739446
-0.510026
-0.299693
-0.107161
0.068784
0.22929
0.375437
0.508239
0.628646
0.737548
0.835772
0.924087
1.0032
1.07378
1.13641
1.19164
1.23997
1.28184
1.31762
1.34767
1.37228
1.39167
1.40605
1.41556
1.42029
1.42029
1.41556
1.40605
1.39167
1.37228
1.34767
1.31762
1.28184
1.23997
1.19164
1.13641
1.07378
1.0032
0.924087
0.835772
0.737548
0.628646
0.508239
0.375437
0.22929
0.068784
-0.107161
-0.299693
-0.510026
-0.739446
-0.989307
-1.26104
-1.55614
-1.87617
-2.22278
-2.59766
-3.00257
-3.04975
-2.63974
-2.2599
-1.90849
-1.58384
-1.28432
-1.00837
-0.754509
-0.521307
-0.307409
-0.111527
0.0675584
0.231
0.379883
0.515229
0.637995
0.749077
0.849309
0.939468
1.02027
1.09237
1.15639
1.21286
1.26229
1.30513
1.34175
1.37252
1.39771
1.41758
1.43231
1.44205
1.44689
1.44689
1.44205
1.43231
1.41758
1.39771
1.37252
1.34175
1.30513
1.26229
1.21286
1.15639
1.09237
1.02027
0.939468
0.849309
0.749077
0.637995
0.515229
0.379883
0.231
0.0675584
-0.111527
-0.307409
-0.521307
-0.754509
-1.00837
-1.28432
-1.58384
-1.90849
-2.2599
-2.63974
-3.04975
-3.08756
-2.6735
-2.2897
-1.93446
-1.60612
-1.30307
-1.02375
-0.766688
-0.530456
-0.3137
-0.115129
0.0664767
0.232276
0.383357
0.520747
0.645409
0.758244
0.860091
0.951732
1.03389
1.10723
1.17235
1.22983
1.28014
1.32376
1.36106
1.3924
1.41807
1.43831
1.45332
1.46325
1.46819
1.46819
1.46325
1.45332
1.43831
1.41807
1.3924
1.36106
1.32376
1.28014
1.22983
1.17235
1.10723
1.03389
0.951732
0.860091
0.758244
0.645409
0.520747
0.383357
0.232276
0.0664767
-0.115129
-0.3137
-0.530456
-0.766688
-1.02375
-1.30307
-1.60612
-1.93446
-2.2897
-2.6735
-3.08756
-3.11596
-2.69887
-2.31211
-1.95401
-1.62291
-1.3172
-1.03536
-0.775897
-0.537389
-0.318486
-0.117895
0.0656064
0.233178
0.385913
0.524843
0.650932
0.765086
0.868149
0.960906
1.04408
1.11835
1.18431
1.24254
1.29353
1.33773
1.37554
1.40731
1.43334
1.45386
1.46909
1.47916
1.48417
1.48417
1.47916
1.46909
1.45386
1.43334
1.40731
1.37554
1.33773
1.29353
1.24254
1.18431
1.11835
1.04408
0.960906
0.868149
0.765086
0.650932
0.524843
0.385913
0.233178
0.0656064
-0.117895
-0.318486
-0.537389
-0.775897
-1.03536
-1.3172
-1.62291
-1.95401
-2.31211
-2.69887
-3.11596
-3.13491
-2.7158
-2.32708
-1.96708
-1.63413
-1.32667
-1.04314
-0.782071
-0.542046
-0.321709
-0.119769
0.064998
0.233754
0.387595
0.527552
0.654595
0.769632
0.873508
0.967011
1.05087
1.12575
1.19228
1.25101
1.30244
1.34704
1.38519
1.41725
1.44352
1.46424
1.4796
1.48977
1.49482
1.49482
1.48977
1.4796
1.46424
1.44352
1.41725
1.38519
1.34704
1.30244
1.25101
1.19228
1.12575
1.05087
0.967011
0.873508
0.769632
0.654595
0.527552
0.387595
0.233754
0.064998
-0.119769
-0.321709
-0.542046
-0.782071
-1.04314
-1.32667
-1.63413
-1.96708
-2.32708
-2.7158
-3.13491
-3.14439
-2.72428
-2.33458
-1.97362
-1.63975
-1.33141
-1.04704
-0.785169
-0.544384
-0.323331
-0.120715
0.0646853
0.234035
0.388428
0.528901
0.656421
0.7719
0.876183
0.97006
1.05426
1.12946
1.19626
1.25524
1.3069
1.35169
1.39002
1.42222
1.44861
1.46942
1.48486
1.49507
1.50015
1.50015
1.49507
1.48486
1.46942
1.44861
1.42222
1.39002
1.35169
1.3069
1.25524
1.19626
1.12946
1.05426
0.97006
0.876183
0.7719
0.656421
0.528901
0.388428
0.234035
0.0646853
-0.120715
-0.323331
-0.544384
-0.785169
-1.04704
-1.33141
-1.63975
-1.97362
-2.33458
-2.72428
-3.14439
-3.14439
-2.72428
-2.33458
-1.97362
-1.63975
-1.33141
-1.04704
-0.785169
-0.544384
-0.323331
-0.120715
0.0646853
0.234035
0.388428
0.528901
0.656421
0.7719
0.876183
0.97006
1.05426
1.12946
1.19626
1.25524
1.3069
1.35169
1.39002
1.42222
1.44861
1.46942
1.48486
1.49507
1.50015
1.50015
1.49507
1.48486
1.46942
1.44861
1.42222
1.39002
1.35169
1.3069
1.25524
1.19626
1.12946
1.05426
0.97006
0.876183
0.7719
0.656421
0.528901
0.388428
0.234035
0.0646853
-0.120715
-0.323331
-0.544384
-0.785169
-1.04704
-1.33141
-1.63975
-1.97362
-2.33458
-2.72428
-3.14439
-3.13491
-2.7158
-2.32708
-1.96708
-1.63413
-1.32667
-1.04314
-0.782071
-0.542046
-0.321709
-0.119769
0.064998
0.233754
0.387595
0.527552
0.654595
0.769632
0.873508
0.967011
1.05087
1.12575
1.19228
1.25101
1.30244
1.34704
1.38519
1.41725
1.44352
1.46424
1.4796
1.48977
1.49482
1.49482
1.48977
1.4796
1.46424
1.44352
1.41725
1.38519
1.34704
1.30244
1.25101
1.19228
1.12575
1.05087
0.967011
0.873508
0.769632
0.654595
0.527552
0.387595
0.233754
0.064998
-0.119769
-0.321709
-0.542046
-0.782071
-1.04314
-1.32667
-1.63413
-1.96708
-2.32708
-2.7158
-3.13491
-3.11596
-2.69887
-2.31211
-1.95401
-1.62291
-1.3172
-1.03536
-0.775897
-0.537389
-0.318486
-0.117895
0.0656064
0.233178
0.385913
0.524843
0.650932
0.765086
0.868149
0.960906
1.04408
1.11835
1.18431
1.24254
1.29353
1.33773
1.37554
1.40731
1.43334
1.45386
1.46909
1.47916
1.48417
1.48417
1.47916
1.46909
1.45386
1.43334
1.40731
1.37554
1.33773
1.29353
1.24254
1.18431
1.11835
1.04408
0.960906
0.868149
0.765086
0.650932
0.524843
0.385913
0.233178
0.0656064
-0.117895
-0.318486
-0.537389
-0.775897
-1.03536
-1.3172
-1.62291
-1.95401
-2.31211
-2.69887
-3.11596
-3.08756
-2.6735
-2.2897
-1.93446
-1.60612
-1.30307
-1.02375
-0.766688
-0.530456
-0.3137
-0.115129
0.0664767
0.232276
0.383357
0.520747
0.645409
0.758244
0.860091
0.951732
1.03389
1.10723
1.17235
1.22983
1.28014
1.32376
1.36106
1.3924
1.41807
1.43831
1.45332
1.46325
1.46819
1.46819
1.46325
1.45332
1.43831
1.41807
1.3924
1.36106
1.32376
1.28014
1.22983
1.17235
1.10723
1.03389
0.951732
0.860091
0.758244
0.645409
0.520747
0.383357
0.232276
0.0664767
-0.115129
-0.3137
-0.530456
-0.766688
-1.02375
-1.30307
-1.60612
-1.93446
-2.2897
-2.6735
-3.08756
-3.04975
-2.63974
-2.2599
-1.90849
-1.58384
-1.28432
-1.00837
-0.754509
-0.521307
-0.307409
-0.111527
0.0675584
0.231
0.379883
0.515229
0.637995
0.749077
0.849309
0.939468
1.02027
1.09237
1.15639
1.21286
1.26229
1.30513
1.34175
1.37252
1.39771
1.41758
1.43231
1.44205
1.44689
1.44689
1.44205
1.43231
1.41758
1.39771
1.37252
1.34175
1.30513
1.26229
1.21286
1.15639
1.09237
1.02027
0.939468
0.849309
0.749077
0.637995
0.515229
0.379883
0.231
0.0675584
-0.111527
-0.307409
-0.521307
-0.754509
-1.00837
-1.28432
-1.58384
-1.90849
-2.2599
-2.63974
-3.04975
-3.00257
-2.59766
-2.22278
-1.87617
-1.55614
-1.26104
-0.989307
-0.739446
-0.510026
-0.299693
-0.107161
0.068784
0.22929
0.375437
0.508239
0.628646
0.737548
0.835772
0.924087
1.0032
1.07378
1.13641
1.19164
1.23997
1.28184
1.31762
1.34767
1.37228
1.39167
1.40605
1.41556
1.42029
1.42029
1.41556
1.40605
1.39167
1.37228
1.34767
1.31762
1.28184
1.23997
1.19164
1.13641
1.07378
1.0032
0.924087
0.835772
0.737548
0.628646
0.508239
0.375437
0.22929
0.068784
-0.107161
-0.299693
-0.510026
-0.739446
-0.989307
-1.26104
-1.55614
-1.87617
-2.22278
-2.59766
-3.00257
-2.94607
-2.54733
-2.17844
-1.83761
-1.52314
-1.23335
-0.966675
-0.721607
-0.496716
-0.290649
-0.102123
0.0700693
0.22707
0.36995
0.499716
0.617309
0.723611
0.81944
0.905559
0.982669
1.05142
1.1124
1.16616
1.21317
1.25388
1.28867
1.31787
1.34177
1.3606
1.37457
1.3838
1.38839
1.38839
1.3838
1.37457
1.3606
1.34177
1.31787
1.28867
1.25388
1.21317
1.16616
1.1124
1.05142
0.982669
0.905559
0.81944
0.723611
0.617309
0.499716
0.36995
0.22707
0.0700693
-0.102123
-0.290649
-0.496716
-0.721607
-0.966675
-1.23335
-1.52314
-1.83761
-2.17844
-2.54733
-2.94607
-2.88035
-2.48884
-2.12699
-1.79294
-1.48497
-1.20139
-0.940609
-0.701125
-0.481504
-0.280396
-0.0965239
0.0713134
0.224248
0.36334
0.489588
0.603921
0.707212
0.800268
0.883843
0.95863
1.02527
1.08434
1.13639
1.18188
1.22126
1.25489
1.2831
1.30619
1.32438
1.33786
1.34677
1.3512
1.3512
1.34677
1.33786
1.32438
1.30619
1.2831
1.25489
1.22126
1.18188
1.13639
1.08434
1.02527
0.95863
0.883843
0.800268
0.707212
0.603921
0.489588
0.36334
0.224248
0.0713134
-0.0965239
-0.280396
-0.481504
-0.701125
-0.940609
-1.20139
-1.48497
-1.79294
-2.12699
-2.48884
-2.88035
-2.80549
-2.42234
-2.06858
-1.74232
-1.44179
-1.16531
-0.911272
-0.678158
-0.46454
-0.269074
-0.0904912
0.0723993
0.220718
0.355514
0.477772
0.588411
0.688289
0.778205
0.858899
0.931056
0.995304
1.05222
1.10233
1.1461
1.18396
1.21629
1.24339
1.26556
1.28302
1.29596
1.30451
1.30876
1.30876
1.30451
1.29596
1.28302
1.26556
1.24339
1.21629
1.18396
1.1461
1.10233
1.05222
0.995304
0.931056
0.858899
0.778205
0.688289
0.588411
0.477772
0.355514
0.220718
0.0723993
-0.0904912
-0.269074
-0.46454
-0.678158
-0.911272
-1.16531
-1.44179
-1.74232
-2.06858
-2.42234
-2.80549
-2.72163
-2.34798
-2.00338
-1.68593
-1.39381
-1.12533
-0.878854
-0.652886
-0.445995
-0.256842
-0.084172
0.0731937
0.216361
0.346365
0.464176
0.570697
0.666774
0.753192
0.830679
0.899908
0.961497
1.01601
1.06397
1.10583
1.14201
1.17288
1.19875
1.21989
1.23654
1.24887
1.25702
1.26107
1.26107
1.25702
1.24887
1.23654
1.21989
1.19875
1.17288
1.14201
1.10583
1.06397
1.01601
0.961497
0.899908
0.830679
0.753192
0.666774
0.570697
0.464176
0.346365
0.216361
0.0731937
-0.084172
-0.256842
-0.445995
-0.652886
-0.878854
-1.12533
-1.39381
-1.68593
-2.00338
-2.34798
-2.72163
-2.62893
-2.26595
-1.93162
-1.624
-1.34125
-1.08165
-0.843576
-0.62552
-0.426064
-0.243881
-0.0777312
0.0735479
0.211045
0.335777
0.448697
0.550692
0.642593
0.725169
0.799134
0.865148
0.923818
0.975697
1.02129
1.06105
1.09539
1.12466
1.14918
1.16921
1.18496
1.19663
1.20433
1.20817
1.20817
1.20433
1.19663
1.18496
1.16921
1.14918
1.12466
1.09539
1.06105
1.02129
0.975697
0.923818
0.865148
0.799134
0.725169
0.642593
0.550692
0.448697
0.335777
0.211045
0.0735479
-0.0777312
-0.243881
-0.426064
-0.62552
-0.843576
-1.08165
-1.34125
-1.624
-1.93162
-2.26595
-2.62893
-2.52759
-2.17647
-1.85353
-1.55679
-1.28437
-1.03454
-0.805685
-0.596295
-0.404966
-0.230393
-0.0713514
0.073298
0.204623
0.323621
0.431224
0.528302
0.615666
0.694069
0.764211
0.826736
0.882239
0.931259
0.974292
1.01178
1.04412
1.07166
1.09471
1.11352
1.12832
1.13927
1.14649
1.15009
1.15009
1.14649
1.13927
1.12832
1.11352
1.09471
1.07166
1.04412
1.01178
0.974292
0.931259
0.882239
0.826736
0.764211
0.694069
0.615666
0.528302
0.431224
0.323621
0.204623
0.073298
-0.0713514
-0.230393
-0.404966
-0.596295
-0.805685
-1.03454
-1.28437
-1.55679
-1.85353
-2.17647
-2.52759
-2.41786
-2.07984
-1.76944
-1.48461
-1.22348
-0.984307
-0.765467
-0.565475
-0.382947
-0.216598
-0.0652322
0.0722659
0.196939
0.30976
0.411639
0.503425
0.585908
0.659825
0.725857
0.784633
0.836732
0.882682
0.922963
0.958009
0.988205
1.01389
1.03537
1.05288
1.06664
1.07682
1.08353
1.08687
1.08687
1.08353
1.07682
1.06664
1.05288
1.03537
1.01389
0.988205
0.958009
0.922963
0.882682
0.836732
0.784633
0.725857
0.659825
0.585908
0.503425
0.411639
0.30976
0.196939
0.0722659
-0.0652322
-0.216598
-0.382947
-0.565475
-0.765467
-0.984307
-1.22348
-1.48461
-1.76944
-2.07984
-2.41786
-2.30003
-1.97639
-1.67967
-1.40783
-1.15894
-0.931278
-0.723237
-0.533354
-0.360272
-0.202739
-0.0595897
0.0702605
0.187825
0.294049
0.389818
0.475956
0.553233
0.622365
0.684016
0.738797
0.78727
0.82995
0.867304
0.899751
0.927666
0.95138
0.97118
0.98731
0.999973
1.00933
1.0155
1.01857
1.01857
1.0155
1.00933
0.999973
0.98731
0.97118
0.95138
0.927666
0.899751
0.867304
0.82995
0.78727
0.738797
0.684016
0.622365
0.553233
0.475956
0.389818
0.294049
0.187825
0.0702605
-0.0595897
-0.202739
-0.360272
-0.533354
-0.723237
-0.931278
-1.15894
-1.40783
-1.67967
-1.97639
-2.30003
-2.17448
-1.86651
-1.58467
-1.32685
-1.09114
-0.875834
-0.679348
-0.500253
-0.337234
-0.189077
-0.0546549
0.0670787
0.177104
0.276335
0.36563
0.445786
0.517552
0.581621
0.638636
0.689191
0.733832
0.773056
0.807316
0.837019
0.862526
0.884158
0.902192
0.916863
0.928368
0.936861
0.942459
0.945239
0.945239
0.942459
0.936861
0.928368
0.916863
0.902192
0.884158
0.862526
0.837019
0.807316
0.773056
0.733832
0.689191
0.638636
0.581621
0.517552
0.445786
0.36563
0.276335
0.177104
0.0670787
-0.0546549
-0.189077
-0.337234
-0.500253
-0.679348
-0.875834
-1.09114
-1.32685
-1.58467
-1.86651
-2.17448
-2.04166
-1.7507
-1.4849
-1.24214
-1.02054
-0.818399
-0.634187
-0.466524
-0.314145
-0.175888
-0.0506723
0.0625068
0.164591
0.25646
0.338941
0.412806
0.478775
0.537521
0.589665
0.635781
0.676397
0.711995
0.743009
0.769834
0.792817
0.812267
0.828451
0.841594
0.851886
0.859475
0.864473
0.866953
0.866953
0.864473
0.859475
0.851886
0.841594
0.828451
0.812267
0.792817
0.769834
0.743009
0.711995
0.676397
0.635781
0.589665
0.537521
0.478775
0.412806
0.338941
0.25646
0.164591
0.0625068
-0.0506723
-0.175888
-0.314145
-0.466524
-0.634187
-0.818399
-1.02054
-1.24214
-1.4849
-1.7507
-2.04166
-1.90211
-1.62951
-1.38093
-1.15427
-0.947651
-0.759442
-0.588178
-0.432544
-0.291341
-0.163468
-0.0478985
0.0563228
0.150095
0.234262
0.309617
0.376902
0.436813
0.489997
0.537054
0.578537
0.614954
0.646769
0.6744
0.698226
0.71858
0.735759
0.750017
0.761571
0.770601
0.77725
0.781624
0.783793
0.783793
0.781624
0.77725
0.770601
0.761571
0.750017
0.735759
0.71858
0.698226
0.6744
0.646769
0.614954
0.578537
0.537054
0.489997
0.436813
0.376902
0.309617
0.234262
0.150095
0.0563228
-0.0478985
-0.163468
-0.291341
-0.432544
-0.588178
-0.759442
-0.947651
-1.15427
-1.38093
-1.62951
-1.90211
-1.75648
-1.50362
-1.27343
-1.06384
-0.873041
-0.69948
-0.541781
-0.398719
-0.269176
-0.152123
-0.0465996
0.0482975
0.133421
0.209575
0.277518
0.337963
0.391578
0.438984
0.480759
0.517433
0.549494
0.577387
0.601514
0.622233
0.639867
0.654695
0.666961
0.676872
0.684599
0.690276
0.694005
0.695853
0.695853
0.694005
0.690276
0.684599
0.676872
0.666961
0.654695
0.639867
0.622233
0.601514
0.577387
0.549494
0.517433
0.480759
0.438984
0.391578
0.337963
0.277518
0.209575
0.133421
0.0482975
-0.0465996
-0.152123
-0.269176
-0.398719
-0.541781
-0.69948
-0.873041
-1.06384
-1.27343
-1.50362
-1.75648
-1.60558
-1.37382
-1.16315
-0.97156
-0.797348
-0.639075
-0.495489
-0.365476
-0.248018
-0.142173
-0.0470489
0.0381975
0.114371
0.182233
0.24251
0.295881
0.342987
0.384423
0.420742
0.452453
0.480022
0.503872
0.524387
0.541908
0.556741
0.569152
0.57937
0.587592
0.593979
0.598658
0.601725
0.603242
0.603242
0.601725
0.598658
0.593979
0.587592
0.57937
0.569152
0.556741
0.541908
0.524387
0.503872
0.480022
0.452453
0.420742
0.384423
0.342987
0.295881
0.24251
0.182233
0.114371
0.0381975
-0.0470489
-0.142173
-0.248018
-0.365476
-0.495489
-0.639075
-0.797348
-0.97156
-1.16315
-1.37382
-1.60558
-1.45035
-1.24105
-1.05097
-0.878222
-0.72127
-0.578836
-0.449824
-0.333262
-0.228251
-0.133943
-0.0495247
0.0257859
0.0927435
0.15207
0.204455
0.250547
0.290958
0.326258
0.356973
0.383589
0.406548
0.426253
0.443067
0.457314
0.469281
0.479218
0.487343
0.493839
0.498856
0.502516
0.504906
0.506087
0.506087
0.504906
0.502516
0.498856
0.493839
0.487343
0.479218
0.469281
0.457314
0.443067
0.426253
0.406548
0.383589
0.356973
0.326258
0.290958
0.250547
0.204455
0.15207
0.0927435
0.0257859
-0.0495247
-0.133943
-0.228251
-0.333262
-0.449824
-0.578836
-0.72127
-0.878222
-1.05097
-1.24105
-1.45035
-1.29196
-1.1064
-0.937885
-0.784713
-0.645572
-0.51941
-0.405333
-0.302538
-0.210262
-0.127763
-0.0543076
0.0108252
0.0683409
0.118922
0.163222
0.201861
0.235421
0.264444
0.289432
0.310843
0.329098
0.344577
0.357619
0.368531
0.37758
0.385001
0.390997
0.395738
0.399365
0.401989
0.403692
0.40453
0.40453
0.403692
0.401989
0.399365
0.395738
0.390997
0.385001
0.37758
0.368531
0.357619
0.344577
0.329098
0.310843
0.289432
0.264444
0.235421
0.201861
0.163222
0.118922
0.0683409
0.0108252
-0.0543076
-0.127763
-0.210262
-0.302538
-0.405333
-0.51941
-0.645572
-0.784713
-0.937885
-1.1064
-1.29196
-1.13177
-0.971159
-0.825038
-0.692007
-0.571072
-0.461476
-0.362578
-0.273772
-0.194446
-0.123966
-0.0616795
-0.00692288
0.0409637
0.0826255
0.118684
0.149727
0.17631
0.198945
0.218108
0.234232
0.247712
0.258902
0.268121
0.275654
0.281749
0.286625
0.290467
0.293434
0.295655
0.297232
0.298242
0.298734
0.298734
0.298242
0.297232
0.295655
0.293434
0.290467
0.286625
0.281749
0.275654
0.268121
0.258902
0.247712
0.234232
0.218108
0.198945
0.17631
0.149727
0.118684
0.0826255
0.0409637
-0.00692288
-0.0616795
-0.123966
-0.194446
-0.273772
-0.362578
-0.461476
-0.571072
-0.692007
-0.825038
-0.971159
-1.13177
-0.971453
-0.83683
-0.713721
-0.601177
-0.49864
-0.405737
-0.322129
-0.247433
-0.181194
-0.122884
-0.0719219
-0.0276952
0.0104159
0.0430235
0.0707177
0.0940588
0.113571
0.129739
0.14301
0.15379
0.162446
0.169309
0.174673
0.178801
0.181922
0.184234
0.18591
0.187092
0.187899
0.188424
0.188736
0.188881
0.188881
0.188736
0.188424
0.187899
0.187092
0.18591
0.184234
0.181922
0.178801
0.174673
0.169309
0.162446
0.15379
0.14301
0.129739
0.113571
0.0940588
0.0707177
0.0430235
0.0104159
-0.0276952
-0.0719219
-0.122884
-0.181194
-0.247433
-0.322129
-0.405737
-0.49864
-0.601177
-0.713721
-0.83683
-0.971453
-0.81301
-0.705143
-0.605364
-0.51336
-0.429168
-0.352893
-0.284548
-0.223985
-0.170898
-0.12485
-0.0853173
-0.0517293
-0.0234972
-3.76208e-05
0.0192109
0.0347799
0.0471638
0.0568188
0.0641608
0.0695675
0.0733784
0.0758975
0.0773949
0.0781092
0.0782488
0.0779946
0.0775009
0.0768973
0.0762899
0.0757624
0.0753766
0.0751735
0.0751735
0.0753766
0.0757624
0.0762899
0.0768973
0.0775009
0.0779946
0.0782488
0.0781092
0.0773949
0.0758975
0.0733784
0.0695675
0.0641608
0.0568188
0.0471638
0.0347799
0.0192109
-3.76209e-05
-0.0234972
-0.0517293
-0.0853173
-0.12485
-0.170898
-0.223985
-0.284548
-0.352893
-0.429168
-0.51336
-0.605364
-0.705143
-0.81301
-0.658836
-0.578115
-0.501548
-0.429756
-0.363557
-0.303638
-0.250389
-0.203887
-0.163947
-0.130197
-0.102151
-0.0792616
-0.0609652
-0.0467017
-0.0359369
-0.0281678
-0.0229306
-0.0198
-0.0183914
-0.0183572
-0.0193875
-0.0212055
-0.0235671
-0.0262574
-0.0290895
-0.0319017
-0.0345566
-0.036939
-0.038955
-0.0405306
-0.041611
-0.0421602
-0.0421602
-0.041611
-0.0405306
-0.038955
-0.036939
-0.0345566
-0.0319017
-0.0290895
-0.0262574
-0.0235671
-0.0212055
-0.0193875
-0.0183572
-0.0183914
-0.0198
-0.0229306
-0.0281678
-0.0359369
-0.0467017
-0.0609652
-0.0792616
-0.102151
-0.130197
-0.163947
-0.203887
-0.250389
-0.303638
-0.363557
-0.429756
-0.501548
-0.578115
-0.658836
-0.511831
-0.458012
-0.403949
-0.351555
-0.302669
-0.258625
-0.220184
-0.187592
-0.160737
-0.139268
-0.122711
-0.110529
-0.102172
-0.0971018
-0.0948101
-0.0948233
-0.0967099
-0.100077
-0.104573
-0.109881
-0.115722
-0.121847
-0.12804
-0.134109
-0.13989
-0.145239
-0.150038
-0.154184
-0.157597
-0.160211
-0.16198
-0.162873
-0.162873
-0.16198
-0.160211
-0.157597
-0.154184
-0.150038
-0.145239
-0.13989
-0.134109
-0.12804
-0.121847
-0.115722
-0.109881
-0.104573
-0.100077
-0.0967099
-0.0948233
-0.0948101
-0.0971018
-0.102172
-0.110529
-0.122711
-0.139268
-0.160737
-0.187592
-0.220184
-0.258625
-0.302669
-0.351555
-0.403949
-0.458012
-0.511831
-0.375449
-0.347389
-0.314283
-0.279901
-0.247299
-0.218477
-0.194463
-0.175572
-0.161683
-0.152421
-0.147295
-0.145763
-0.147288
-0.151348
-0.157464
-0.165193
-0.174136
-0.183934
-0.194271
-0.204861
-0.215457
-0.22584
-0.235818
-0.245224
-0.253917
-0.261772
-0.268687
-0.274575
-0.279367
-0.283008
-0.285457
-0.286688
-0.286688
-0.285457
-0.283008
-0.279367
-0.274575
-0.268687
-0.261772
-0.253917
-0.245224
-0.235818
-0.22584
-0.215457
-0.204861
-0.194271
-0.183934
-0.174136
-0.165193
-0.157464
-0.151348
-0.147288
-0.145763
-0.147295
-0.152421
-0.161683
-0.175572
-0.194463
-0.218477
-0.247299
-0.279901
-0.314283
-0.347389
-0.375449
-0.253832
-0.248926
-0.23416
-0.215761
-0.198146
-0.183794
-0.173781
-0.168333
-0.16723
-0.170027
-0.176196
-0.185183
-0.196458
-0.209521
-0.22392
-0.239244
-0.25513
-0.271255
-0.287335
-0.30312
-0.318392
-0.33296
-0.34666
-0.359349
-0.370906
-0.381227
-0.390225
-0.397828
-0.403978
-0.408629
-0.411748
-0.413313
-0.413313
-0.411748
-0.408629
-0.403978
-0.397828
-0.390225
-0.381227
-0.370906
-0.359349
-0.34666
-0.33296
-0.318392
-0.30312
-0.287335
-0.271255
-0.25513
-0.239244
-0.22392
-0.209521
-0.196458
-0.185183
-0.176196
-0.170027
-0.16723
-0.168333
-0.173781
-0.183794
-0.198146
-0.215761
-0.23416
-0.248926
-0.253832
-0.151764
-0.165284
-0.164867
-0.159905
-0.155885
-0.155246
-0.15878
-0.166447
-0.177859
-0.192466
-0.209694
-0.228974
-0.249784
-0.271645
-0.294138
-0.316884
-0.339556
-0.361865
-0.383561
-0.404427
-0.424274
-0.44294
-0.460287
-0.476193
-0.490559
-0.503298
-0.514341
-0.523627
-0.53111
-0.536753
-0.540529
-0.542422
-0.542422
-0.540529
-0.536753
-0.53111
-0.523627
-0.514341
-0.503298
-0.490559
-0.476193
-0.460287
-0.44294
-0.424274
-0.404427
-0.383561
-0.361865
-0.339556
-0.316884
-0.294138
-0.271645
-0.249784
-0.228974
-0.209694
-0.192466
-0.177859
-0.166447
-0.15878
-0.155246
-0.155885
-0.159905
-0.164867
-0.165284
-0.151764
-0.0745282
-0.0984246
-0.107085
-0.113
-0.121322
-0.133673
-0.15022
-0.170554
-0.194066
-0.220096
-0.24802
-0.277255
-0.307292
-0.337673
-0.368009
-0.397952
-0.427211
-0.455528
-0.482688
-0.5085
-0.532808
-0.555472
-0.57638
-0.595431
-0.612545
-0.627652
-0.640697
-0.651633
-0.660424
-0.66704
-0.671462
-0.673677
-0.673677
-0.671462
-0.66704
-0.660424
-0.651633
-0.640697
-0.627652
-0.612545
-0.595431
-0.57638
-0.555472
-0.532808
-0.5085
-0.482688
-0.455528
-0.427211
-0.397952
-0.368009
-0.337673
-0.307292
-0.277255
-0.24802
-0.220096
-0.194066
-0.170554
-0.15022
-0.133673
-0.121322
-0.113
-0.107085
-0.0984246
-0.0745282
-0.0266174
-0.0484739
-0.0613492
-0.0761179
-0.0956742
-0.120163
-0.148989
-0.181309
-0.216301
-0.253188
-0.291298
-0.330035
-0.368898
-0.407447
-0.445317
-0.48219
-0.517804
-0.55193
-0.584381
-0.614994
-0.643637
-0.670194
-0.694573
-0.716695
-0.736495
-0.753919
-0.768926
-0.781479
-0.791552
-0.799124
-0.80418
-0.806711
-0.806711
-0.80418
-0.799124
-0.791552
-0.781479
-0.768926
-0.753919
-0.736495
-0.716695
-0.694573
-0.670194
-0.643637
-0.614994
-0.584381
-0.55193
-0.517804
-0.48219
-0.445317
-0.407447
-0.368898
-0.330035
-0.291298
-0.253188
-0.216301
-0.181309
-0.148989
-0.120163
-0.0956742
-0.0761179
-0.0613492
-0.0484739
-0.0266174
-0.0051669
-0.0155217
-0.0292985
-0.0512111
-0.0805853
-0.115954
-0.155935
-0.199245
-0.244846
-0.291832
-0.339477
-0.387155
-0.434363
-0.480669
-0.525724
-0.569231
-0.610949
-0.650672
-0.688236
-0.7235
-0.756353
-0.786699
-0.814463
-0.839584
-0.862012
-0.881707
-0.898638
-0.912779
-0.924113
-0.932624
-0.938304
-0.941145
-0.941145
-0.938304
-0.932624
-0.924113
-0.912779
-0.898638
-0.881707
-0.862012
-0.839584
-0.814463
-0.786699
-0.756353
-0.7235
-0.688236
-0.650672
-0.610949
-0.569231
-0.525724
-0.480669
-0.434363
-0.387155
-0.339477
-0.291832
-0.244846
-0.199245
-0.155935
-0.115954
-0.0805853
-0.0512111
-0.0292985
-0.0155217
-0.0051669
