# vtk DataFile Version 3.0
STAP++ Results
ASCII
DATASET UNSTRUCTURED_GRID
POINTS 625 float
0 0 0
0.33333 0 0
0.66667 0 0
1 0 0
1.33333 0 0
1.66667 0 0
2 0 0
2.33333 0 0
2.66667 0 0
3 0 0
3.33333 0 0
3.66667 0 0
4 0 0
4.33333 0 0
4.66667 0 0
5 0 0
5.33333 0 0
5.66667 0 0
6 0 0
6.33333 0 0
6.66667 0 0
7 0 0
7.33333 0 0
7.66667 0 0
8 0 0
0 0.33333 0
0.33333 0.33333 0
0.66667 0.33333 0
1 0.33333 0
1.33333 0.33333 0
1.66667 0.33333 0
2 0.33333 0
2.33333 0.33333 0
2.66667 0.33333 0
3 0.33333 0
3.33333 0.33333 0
3.66667 0.33333 0
4 0.33333 0
4.33333 0.33333 0
4.66667 0.33333 0
5 0.33333 0
5.33333 0.33333 0
5.66667 0.33333 0
6 0.33333 0
6.33333 0.33333 0
6.66667 0.33333 0
7 0.33333 0
7.33333 0.33333 0
7.66667 0.33333 0
8 0.33333 0
0 0.66667 0
0.33333 0.66667 0
0.66667 0.66667 0
1 0.66667 0
1.33333 0.66667 0
1.66667 0.66667 0
2 0.66667 0
2.33333 0.66667 0
2.66667 0.66667 0
3 0.66667 0
3.33333 0.66667 0
3.66667 0.66667 0
4 0.66667 0
4.33333 0.66667 0
4.66667 0.66667 0
5 0.66667 0
5.33333 0.66667 0
5.66667 0.66667 0
6 0.66667 0
6.33333 0.66667 0
6.66667 0.66667 0
7 0.66667 0
7.33333 0.66667 0
7.66667 0.66667 0
8 0.66667 0
0 1 0
0.33333 1 0
0.66667 1 0
1 1 0
1.33333 1 0
1.66667 1 0
2 1 0
2.33333 1 0
2.66667 1 0
3 1 0
3.33333 1 0
3.66667 1 0
4 1 0
4.33333 1 0
4.66667 1 0
5 1 0
5.33333 1 0
5.66667 1 0
6 1 0
6.33333 1 0
6.66667 1 0
7 1 0
7.33333 1 0
7.66667 1 0
8 1 0
0 1.33333 0
0.33333 1.33333 0
0.66667 1.33333 0
1 1.33333 0
1.33333 1.33333 0
1.66667 1.33333 0
2 1.33333 0
2.33333 1.33333 0
2.66667 1.33333 0
3 1.33333 0
3.33333 1.33333 0
3.66667 1.33333 0
4 1.33333 0
4.33333 1.33333 0
4.66667 1.33333 0
5 1.33333 0
5.33333 1.33333 0
5.66667 1.33333 0
6 1.33333 0
6.33333 1.33333 0
6.66667 1.33333 0
7 1.33333 0
7.33333 1.33333 0
7.66667 1.33333 0
8 1.33333 0
0 1.66667 0
0.33333 1.66667 0
0.66667 1.66667 0
1 1.66667 0
1.33333 1.66667 0
1.66667 1.66667 0
2 1.66667 0
2.33333 1.66667 0
2.66667 1.66667 0
3 1.66667 0
3.33333 1.66667 0
3.66667 1.66667 0
4 1.66667 0
4.33333 1.66667 0
4.66667 1.66667 0
5 1.66667 0
5.33333 1.66667 0
5.66667 1.66667 0
6 1.66667 0
6.33333 1.66667 0
6.66667 1.66667 0
7 1.66667 0
7.33333 1.66667 0
7.66667 1.66667 0
8 1.66667 0
0 2 0
0.33333 2 0
0.66667 2 0
1 2 0
1.33333 2 0
1.66667 2 0
2 2 0
2.33333 2 0
2.66667 2 0
3 2 0
3.33333 2 0
3.66667 2 0
4 2 0
4.33333 2 0
4.66667 2 0
5 2 0
5.33333 2 0
5.66667 2 0
6 2 0
6.33333 2 0
6.66667 2 0
7 2 0
7.33333 2 0
7.66667 2 0
8 2 0
0 2.33333 0
0.33333 2.33333 0
0.66667 2.33333 0
1 2.33333 0
1.33333 2.33333 0
1.66667 2.33333 0
2 2.33333 0
2.33333 2.33333 0
2.66667 2.33333 0
3 2.33333 0
3.33333 2.33333 0
3.66667 2.33333 0
4 2.33333 0
4.33333 2.33333 0
4.66667 2.33333 0
5 2.33333 0
5.33333 2.33333 0
5.66667 2.33333 0
6 2.33333 0
6.33333 2.33333 0
6.66667 2.33333 0
7 2.33333 0
7.33333 2.33333 0
7.66667 2.33333 0
8 2.33333 0
0 2.66667 0
0.33333 2.66667 0
0.66667 2.66667 0
1 2.66667 0
1.33333 2.66667 0
1.66667 2.66667 0
2 2.66667 0
2.33333 2.66667 0
2.66667 2.66667 0
3 2.66667 0
3.33333 2.66667 0
3.66667 2.66667 0
4 2.66667 0
4.33333 2.66667 0
4.66667 2.66667 0
5 2.66667 0
5.33333 2.66667 0
5.66667 2.66667 0
6 2.66667 0
6.33333 2.66667 0
6.66667 2.66667 0
7 2.66667 0
7.33333 2.66667 0
7.66667 2.66667 0
8 2.66667 0
0 3 0
0.33333 3 0
0.66667 3 0
1 3 0
1.33333 3 0
1.66667 3 0
2 3 0
2.33333 3 0
2.66667 3 0
3 3 0
3.33333 3 0
3.66667 3 0
4 3 0
4.33333 3 0
4.66667 3 0
5 3 0
5.33333 3 0
5.66667 3 0
6 3 0
6.33333 3 0
6.66667 3 0
7 3 0
7.33333 3 0
7.66667 3 0
8 3 0
0 3.33333 0
0.33333 3.33333 0
0.66667 3.33333 0
1 3.33333 0
1.33333 3.33333 0
1.66667 3.33333 0
2 3.33333 0
2.33333 3.33333 0
2.66667 3.33333 0
3 3.33333 0
3.33333 3.33333 0
3.66667 3.33333 0
4 3.33333 0
4.33333 3.33333 0
4.66667 3.33333 0
5 3.33333 0
5.33333 3.33333 0
5.66667 3.33333 0
6 3.33333 0
6.33333 3.33333 0
6.66667 3.33333 0
7 3.33333 0
7.33333 3.33333 0
7.66667 3.33333 0
8 3.33333 0
0 3.66667 0
0.33333 3.66667 0
0.66667 3.66667 0
1 3.66667 0
1.33333 3.66667 0
1.66667 3.66667 0
2 3.66667 0
2.33333 3.66667 0
2.66667 3.66667 0
3 3.66667 0
3.33333 3.66667 0
3.66667 3.66667 0
4 3.66667 0
4.33333 3.66667 0
4.66667 3.66667 0
5 3.66667 0
5.33333 3.66667 0
5.66667 3.66667 0
6 3.66667 0
6.33333 3.66667 0
6.66667 3.66667 0
7 3.66667 0
7.33333 3.66667 0
7.66667 3.66667 0
8 3.66667 0
0 4 0
0.33333 4 0
0.66667 4 0
1 4 0
1.33333 4 0
1.66667 4 0
2 4 0
2.33333 4 0
2.66667 4 0
3 4 0
3.33333 4 0
3.66667 4 0
4 4 0
4.33333 4 0
4.66667 4 0
5 4 0
5.33333 4 0
5.66667 4 0
6 4 0
6.33333 4 0
6.66667 4 0
7 4 0
7.33333 4 0
7.66667 4 0
8 4 0
0 4.33333 0
0.33333 4.33333 0
0.66667 4.33333 0
1 4.33333 0
1.33333 4.33333 0
1.66667 4.33333 0
2 4.33333 0
2.33333 4.33333 0
2.66667 4.33333 0
3 4.33333 0
3.33333 4.33333 0
3.66667 4.33333 0
4 4.33333 0
4.33333 4.33333 0
4.66667 4.33333 0
5 4.33333 0
5.33333 4.33333 0
5.66667 4.33333 0
6 4.33333 0
6.33333 4.33333 0
6.66667 4.33333 0
7 4.33333 0
7.33333 4.33333 0
7.66667 4.33333 0
8 4.33333 0
0 4.66667 0
0.33333 4.66667 0
0.66667 4.66667 0
1 4.66667 0
1.33333 4.66667 0
1.66667 4.66667 0
2 4.66667 0
2.33333 4.66667 0
2.66667 4.66667 0
3 4.66667 0
3.33333 4.66667 0
3.66667 4.66667 0
4 4.66667 0
4.33333 4.66667 0
4.66667 4.66667 0
5 4.66667 0
5.33333 4.66667 0
5.66667 4.66667 0
6 4.66667 0
6.33333 4.66667 0
6.66667 4.66667 0
7 4.66667 0
7.33333 4.66667 0
7.66667 4.66667 0
8 4.66667 0
0 5 0
0.33333 5 0
0.66667 5 0
1 5 0
1.33333 5 0
1.66667 5 0
2 5 0
2.33333 5 0
2.66667 5 0
3 5 0
3.33333 5 0
3.66667 5 0
4 5 0
4.33333 5 0
4.66667 5 0
5 5 0
5.33333 5 0
5.66667 5 0
6 5 0
6.33333 5 0
6.66667 5 0
7 5 0
7.33333 5 0
7.66667 5 0
8 5 0
0 5.33333 0
0.33333 5.33333 0
0.66667 5.33333 0
1 5.33333 0
1.33333 5.33333 0
1.66667 5.33333 0
2 5.33333 0
2.33333 5.33333 0
2.66667 5.33333 0
3 5.33333 0
3.33333 5.33333 0
3.66667 5.33333 0
4 5.33333 0
4.33333 5.33333 0
4.66667 5.33333 0
5 5.33333 0
5.33333 5.33333 0
5.66667 5.33333 0
6 5.33333 0
6.33333 5.33333 0
6.66667 5.33333 0
7 5.33333 0
7.33333 5.33333 0
7.66667 5.33333 0
8 5.33333 0
0 5.66667 0
0.33333 5.66667 0
0.66667 5.66667 0
1 5.66667 0
1.33333 5.66667 0
1.66667 5.66667 0
2 5.66667 0
2.33333 5.66667 0
2.66667 5.66667 0
3 5.66667 0
3.33333 5.66667 0
3.66667 5.66667 0
4 5.66667 0
4.33333 5.66667 0
4.66667 5.66667 0
5 5.66667 0
5.33333 5.66667 0
5.66667 5.66667 0
6 5.66667 0
6.33333 5.66667 0
6.66667 5.66667 0
7 5.66667 0
7.33333 5.66667 0
7.66667 5.66667 0
8 5.66667 0
0 6 0
0.33333 6 0
0.66667 6 0
1 6 0
1.33333 6 0
1.66667 6 0
2 6 0
2.33333 6 0
2.66667 6 0
3 6 0
3.33333 6 0
3.66667 6 0
4 6 0
4.33333 6 0
4.66667 6 0
5 6 0
5.33333 6 0
5.66667 6 0
6 6 0
6.33333 6 0
6.66667 6 0
7 6 0
7.33333 6 0
7.66667 6 0
8 6 0
0 6.33333 0
0.33333 6.33333 0
0.66667 6.33333 0
1 6.33333 0
1.33333 6.33333 0
1.66667 6.33333 0
2 6.33333 0
2.33333 6.33333 0
2.66667 6.33333 0
3 6.33333 0
3.33333 6.33333 0
3.66667 6.33333 0
4 6.33333 0
4.33333 6.33333 0
4.66667 6.33333 0
5 6.33333 0
5.33333 6.33333 0
5.66667 6.33333 0
6 6.33333 0
6.33333 6.33333 0
6.66667 6.33333 0
7 6.33333 0
7.33333 6.33333 0
7.66667 6.33333 0
8 6.33333 0
0 6.66667 0
0.33333 6.66667 0
0.66667 6.66667 0
1 6.66667 0
1.33333 6.66667 0
1.66667 6.66667 0
2 6.66667 0
2.33333 6.66667 0
2.66667 6.66667 0
3 6.66667 0
3.33333 6.66667 0
3.66667 6.66667 0
4 6.66667 0
4.33333 6.66667 0
4.66667 6.66667 0
5 6.66667 0
5.33333 6.66667 0
5.66667 6.66667 0
6 6.66667 0
6.33333 6.66667 0
6.66667 6.66667 0
7 6.66667 0
7.33333 6.66667 0
7.66667 6.66667 0
8 6.66667 0
0 7 0
0.33333 7 0
0.66667 7 0
1 7 0
1.33333 7 0
1.66667 7 0
2 7 0
2.33333 7 0
2.66667 7 0
3 7 0
3.33333 7 0
3.66667 7 0
4 7 0
4.33333 7 0
4.66667 7 0
5 7 0
5.33333 7 0
5.66667 7 0
6 7 0
6.33333 7 0
6.66667 7 0
7 7 0
7.33333 7 0
7.66667 7 0
8 7 0
0 7.33333 0
0.33333 7.33333 0
0.66667 7.33333 0
1 7.33333 0
1.33333 7.33333 0
1.66667 7.33333 0
2 7.33333 0
2.33333 7.33333 0
2.66667 7.33333 0
3 7.33333 0
3.33333 7.33333 0
3.66667 7.33333 0
4 7.33333 0
4.33333 7.33333 0
4.66667 7.33333 0
5 7.33333 0
5.33333 7.33333 0
5.66667 7.33333 0
6 7.33333 0
6.33333 7.33333 0
6.66667 7.33333 0
7 7.33333 0
7.33333 7.33333 0
7.66667 7.33333 0
8 7.33333 0
0 7.66667 0
0.33333 7.66667 0
0.66667 7.66667 0
1 7.66667 0
1.33333 7.66667 0
1.66667 7.66667 0
2 7.66667 0
2.33333 7.66667 0
2.66667 7.66667 0
3 7.66667 0
3.33333 7.66667 0
3.66667 7.66667 0
4 7.66667 0
4.33333 7.66667 0
4.66667 7.66667 0
5 7.66667 0
5.33333 7.66667 0
5.66667 7.66667 0
6 7.66667 0
6.33333 7.66667 0
6.66667 7.66667 0
7 7.66667 0
7.33333 7.66667 0
7.66667 7.66667 0
8 7.66667 0
0 8 0
0.33333 8 0
0.66667 8 0
1 8 0
1.33333 8 0
1.66667 8 0
2 8 0
2.33333 8 0
2.66667 8 0
3 8 0
3.33333 8 0
3.66667 8 0
4 8 0
4.33333 8 0
4.66667 8 0
5 8 0
5.33333 8 0
5.66667 8 0
6 8 0
6.33333 8 0
6.66667 8 0
7 8 0
7.33333 8 0
7.66667 8 0
8 8 0
CELLS 576 2880
4 0 1 26 25
4 1 2 27 26
4 2 3 28 27
4 3 4 29 28
4 4 5 30 29
4 5 6 31 30
4 6 7 32 31
4 7 8 33 32
4 8 9 34 33
4 9 10 35 34
4 10 11 36 35
4 11 12 37 36
4 12 13 38 37
4 13 14 39 38
4 14 15 40 39
4 15 16 41 40
4 16 17 42 41
4 17 18 43 42
4 18 19 44 43
4 19 20 45 44
4 20 21 46 45
4 21 22 47 46
4 22 23 48 47
4 23 24 49 48
4 25 26 51 50
4 26 27 52 51
4 27 28 53 52
4 28 29 54 53
4 29 30 55 54
4 30 31 56 55
4 31 32 57 56
4 32 33 58 57
4 33 34 59 58
4 34 35 60 59
4 35 36 61 60
4 36 37 62 61
4 37 38 63 62
4 38 39 64 63
4 39 40 65 64
4 40 41 66 65
4 41 42 67 66
4 42 43 68 67
4 43 44 69 68
4 44 45 70 69
4 45 46 71 70
4 46 47 72 71
4 47 48 73 72
4 48 49 74 73
4 50 51 76 75
4 51 52 77 76
4 52 53 78 77
4 53 54 79 78
4 54 55 80 79
4 55 56 81 80
4 56 57 82 81
4 57 58 83 82
4 58 59 84 83
4 59 60 85 84
4 60 61 86 85
4 61 62 87 86
4 62 63 88 87
4 63 64 89 88
4 64 65 90 89
4 65 66 91 90
4 66 67 92 91
4 67 68 93 92
4 68 69 94 93
4 69 70 95 94
4 70 71 96 95
4 71 72 97 96
4 72 73 98 97
4 73 74 99 98
4 75 76 101 100
4 76 77 102 101
4 77 78 103 102
4 78 79 104 103
4 79 80 105 104
4 80 81 106 105
4 81 82 107 106
4 82 83 108 107
4 83 84 109 108
4 84 85 110 109
4 85 86 111 110
4 86 87 112 111
4 87 88 113 112
4 88 89 114 113
4 89 90 115 114
4 90 91 116 115
4 91 92 117 116
4 92 93 118 117
4 93 94 119 118
4 94 95 120 119
4 95 96 121 120
4 96 97 122 121
4 97 98 123 122
4 98 99 124 123
4 100 101 126 125
4 101 102 127 126
4 102 103 128 127
4 103 104 129 128
4 104 105 130 129
4 105 106 131 130
4 106 107 132 131
4 107 108 133 132
4 108 109 134 133
4 109 110 135 134
4 110 111 136 135
4 111 112 137 136
4 112 113 138 137
4 113 114 139 138
4 114 115 140 139
4 115 116 141 140
4 116 117 142 141
4 117 118 143 142
4 118 119 144 143
4 119 120 145 144
4 120 121 146 145
4 121 122 147 146
4 122 123 148 147
4 123 124 149 148
4 125 126 151 150
4 126 127 152 151
4 127 128 153 152
4 128 129 154 153
4 129 130 155 154
4 130 131 156 155
4 131 132 157 156
4 132 133 158 157
4 133 134 159 158
4 134 135 160 159
4 135 136 161 160
4 136 137 162 161
4 137 138 163 162
4 138 139 164 163
4 139 140 165 164
4 140 141 166 165
4 141 142 167 166
4 142 143 168 167
4 143 144 169 168
4 144 145 170 169
4 145 146 171 170
4 146 147 172 171
4 147 148 173 172
4 148 149 174 173
4 150 151 176 175
4 151 152 177 176
4 152 153 178 177
4 153 154 179 178
4 154 155 180 179
4 155 156 181 180
4 156 157 182 181
4 157 158 183 182
4 158 159 184 183
4 159 160 185 184
4 160 161 186 185
4 161 162 187 186
4 162 163 188 187
4 163 164 189 188
4 164 165 190 189
4 165 166 191 190
4 166 167 192 191
4 167 168 193 192
4 168 169 194 193
4 169 170 195 194
4 170 171 196 195
4 171 172 197 196
4 172 173 198 197
4 173 174 199 198
4 175 176 201 200
4 176 177 202 201
4 177 178 203 202
4 178 179 204 203
4 179 180 205 204
4 180 181 206 205
4 181 182 207 206
4 182 183 208 207
4 183 184 209 208
4 184 185 210 209
4 185 186 211 210
4 186 187 212 211
4 187 188 213 212
4 188 189 214 213
4 189 190 215 214
4 190 191 216 215
4 191 192 217 216
4 192 193 218 217
4 193 194 219 218
4 194 195 220 219
4 195 196 221 220
4 196 197 222 221
4 197 198 223 222
4 198 199 224 223
4 200 201 226 225
4 201 202 227 226
4 202 203 228 227
4 203 204 229 228
4 204 205 230 229
4 205 206 231 230
4 206 207 232 231
4 207 208 233 232
4 208 209 234 233
4 209 210 235 234
4 210 211 236 235
4 211 212 237 236
4 212 213 238 237
4 213 214 239 238
4 214 215 240 239
4 215 216 241 240
4 216 217 242 241
4 217 218 243 242
4 218 219 244 243
4 219 220 245 244
4 220 221 246 245
4 221 222 247 246
4 222 223 248 247
4 223 224 249 248
4 225 226 251 250
4 226 227 252 251
4 227 228 253 252
4 228 229 254 253
4 229 230 255 254
4 230 231 256 255
4 231 232 257 256
4 232 233 258 257
4 233 234 259 258
4 234 235 260 259
4 235 236 261 260
4 236 237 262 261
4 237 238 263 262
4 238 239 264 263
4 239 240 265 264
4 240 241 266 265
4 241 242 267 266
4 242 243 268 267
4 243 244 269 268
4 244 245 270 269
4 245 246 271 270
4 246 247 272 271
4 247 248 273 272
4 248 249 274 273
4 250 251 276 275
4 251 252 277 276
4 252 253 278 277
4 253 254 279 278
4 254 255 280 279
4 255 256 281 280
4 256 257 282 281
4 257 258 283 282
4 258 259 284 283
4 259 260 285 284
4 260 261 286 285
4 261 262 287 286
4 262 263 288 287
4 263 264 289 288
4 264 265 290 289
4 265 266 291 290
4 266 267 292 291
4 267 268 293 292
4 268 269 294 293
4 269 270 295 294
4 270 271 296 295
4 271 272 297 296
4 272 273 298 297
4 273 274 299 298
4 275 276 301 300
4 276 277 302 301
4 277 278 303 302
4 278 279 304 303
4 279 280 305 304
4 280 281 306 305
4 281 282 307 306
4 282 283 308 307
4 283 284 309 308
4 284 285 310 309
4 285 286 311 310
4 286 287 312 311
4 287 288 313 312
4 288 289 314 313
4 289 290 315 314
4 290 291 316 315
4 291 292 317 316
4 292 293 318 317
4 293 294 319 318
4 294 295 320 319
4 295 296 321 320
4 296 297 322 321
4 297 298 323 322
4 298 299 324 323
4 300 301 326 325
4 301 302 327 326
4 302 303 328 327
4 303 304 329 328
4 304 305 330 329
4 305 306 331 330
4 306 307 332 331
4 307 308 333 332
4 308 309 334 333
4 309 310 335 334
4 310 311 336 335
4 311 312 337 336
4 312 313 338 337
4 313 314 339 338
4 314 315 340 339
4 315 316 341 340
4 316 317 342 341
4 317 318 343 342
4 318 319 344 343
4 319 320 345 344
4 320 321 346 345
4 321 322 347 346
4 322 323 348 347
4 323 324 349 348
4 325 326 351 350
4 326 327 352 351
4 327 328 353 352
4 328 329 354 353
4 329 330 355 354
4 330 331 356 355
4 331 332 357 356
4 332 333 358 357
4 333 334 359 358
4 334 335 360 359
4 335 336 361 360
4 336 337 362 361
4 337 338 363 362
4 338 339 364 363
4 339 340 365 364
4 340 341 366 365
4 341 342 367 366
4 342 343 368 367
4 343 344 369 368
4 344 345 370 369
4 345 346 371 370
4 346 347 372 371
4 347 348 373 372
4 348 349 374 373
4 350 351 376 375
4 351 352 377 376
4 352 353 378 377
4 353 354 379 378
4 354 355 380 379
4 355 356 381 380
4 356 357 382 381
4 357 358 383 382
4 358 359 384 383
4 359 360 385 384
4 360 361 386 385
4 361 362 387 386
4 362 363 388 387
4 363 364 389 388
4 364 365 390 389
4 365 366 391 390
4 366 367 392 391
4 367 368 393 392
4 368 369 394 393
4 369 370 395 394
4 370 371 396 395
4 371 372 397 396
4 372 373 398 397
4 373 374 399 398
4 375 376 401 400
4 376 377 402 401
4 377 378 403 402
4 378 379 404 403
4 379 380 405 404
4 380 381 406 405
4 381 382 407 406
4 382 383 408 407
4 383 384 409 408
4 384 385 410 409
4 385 386 411 410
4 386 387 412 411
4 387 388 413 412
4 388 389 414 413
4 389 390 415 414
4 390 391 416 415
4 391 392 417 416
4 392 393 418 417
4 393 394 419 418
4 394 395 420 419
4 395 396 421 420
4 396 397 422 421
4 397 398 423 422
4 398 399 424 423
4 400 401 426 425
4 401 402 427 426
4 402 403 428 427
4 403 404 429 428
4 404 405 430 429
4 405 406 431 430
4 406 407 432 431
4 407 408 433 432
4 408 409 434 433
4 409 410 435 434
4 410 411 436 435
4 411 412 437 436
4 412 413 438 437
4 413 414 439 438
4 414 415 440 439
4 415 416 441 440
4 416 417 442 441
4 417 418 443 442
4 418 419 444 443
4 419 420 445 444
4 420 421 446 445
4 421 422 447 446
4 422 423 448 447
4 423 424 449 448
4 425 426 451 450
4 426 427 452 451
4 427 428 453 452
4 428 429 454 453
4 429 430 455 454
4 430 431 456 455
4 431 432 457 456
4 432 433 458 457
4 433 434 459 458
4 434 435 460 459
4 435 436 461 460
4 436 437 462 461
4 437 438 463 462
4 438 439 464 463
4 439 440 465 464
4 440 441 466 465
4 441 442 467 466
4 442 443 468 467
4 443 444 469 468
4 444 445 470 469
4 445 446 471 470
4 446 447 472 471
4 447 448 473 472
4 448 449 474 473
4 450 451 476 475
4 451 452 477 476
4 452 453 478 477
4 453 454 479 478
4 454 455 480 479
4 455 456 481 480
4 456 457 482 481
4 457 458 483 482
4 458 459 484 483
4 459 460 485 484
4 460 461 486 485
4 461 462 487 486
4 462 463 488 487
4 463 464 489 488
4 464 465 490 489
4 465 466 491 490
4 466 467 492 491
4 467 468 493 492
4 468 469 494 493
4 469 470 495 494
4 470 471 496 495
4 471 472 497 496
4 472 473 498 497
4 473 474 499 498
4 475 476 501 500
4 476 477 502 501
4 477 478 503 502
4 478 479 504 503
4 479 480 505 504
4 480 481 506 505
4 481 482 507 506
4 482 483 508 507
4 483 484 509 508
4 484 485 510 509
4 485 486 511 510
4 486 487 512 511
4 487 488 513 512
4 488 489 514 513
4 489 490 515 514
4 490 491 516 515
4 491 492 517 516
4 492 493 518 517
4 493 494 519 518
4 494 495 520 519
4 495 496 521 520
4 496 497 522 521
4 497 498 523 522
4 498 499 524 523
4 500 501 526 525
4 501 502 527 526
4 502 503 528 527
4 503 504 529 528
4 504 505 530 529
4 505 506 531 530
4 506 507 532 531
4 507 508 533 532
4 508 509 534 533
4 509 510 535 534
4 510 511 536 535
4 511 512 537 536
4 512 513 538 537
4 513 514 539 538
4 514 515 540 539
4 515 516 541 540
4 516 517 542 541
4 517 518 543 542
4 518 519 544 543
4 519 520 545 544
4 520 521 546 545
4 521 522 547 546
4 522 523 548 547
4 523 524 549 548
4 525 526 551 550
4 526 527 552 551
4 527 528 553 552
4 528 529 554 553
4 529 530 555 554
4 530 531 556 555
4 531 532 557 556
4 532 533 558 557
4 533 534 559 558
4 534 535 560 559
4 535 536 561 560
4 536 537 562 561
4 537 538 563 562
4 538 539 564 563
4 539 540 565 564
4 540 541 566 565
4 541 542 567 566
4 542 543 568 567
4 543 544 569 568
4 544 545 570 569
4 545 546 571 570
4 546 547 572 571
4 547 548 573 572
4 548 549 574 573
4 550 551 576 575
4 551 552 577 576
4 552 553 578 577
4 553 554 579 578
4 554 555 580 579
4 555 556 581 580
4 556 557 582 581
4 557 558 583 582
4 558 559 584 583
4 559 560 585 584
4 560 561 586 585
4 561 562 587 586
4 562 563 588 587
4 563 564 589 588
4 564 565 590 589
4 565 566 591 590
4 566 567 592 591
4 567 568 593 592
4 568 569 594 593
4 569 570 595 594
4 570 571 596 595
4 571 572 597 596
4 572 573 598 597
4 573 574 599 598
4 575 576 601 600
4 576 577 602 601
4 577 578 603 602
4 578 579 604 603
4 579 580 605 604
4 580 581 606 605
4 581 582 607 606
4 582 583 608 607
4 583 584 609 608
4 584 585 610 609
4 585 586 611 610
4 586 587 612 611
4 587 588 613 612
4 588 589 614 613
4 589 590 615 614
4 590 591 616 615
4 591 592 617 616
4 592 593 618 617
4 593 594 619 618
4 594 595 620 619
4 595 596 621 620
4 596 597 622 621
4 597 598 623 622
4 598 599 624 623
CELL_TYPES 576
9
9
9
9
9
9
9
9
9
9
9
9
9
9
9
9
9
9
9
9
9
9
9
9
9
9
9
9
9
9
9
9
9
9
9
9
9
9
9
9
9
9
9
9
9
9
9
9
9
9
9
9
9
9
9
9
9
9
9
9
9
9
9
9
9
9
9
9
9
9
9
9
9
9
9
9
9
9
9
9
9
9
9
9
9
9
9
9
9
9
9
9
9
9
9
9
9
9
9
9
9
9
9
9
9
9
9
9
9
9
9
9
9
9
9
9
9
9
9
9
9
9
9
9
9
9
9
9
9
9
9
9
9
9
9
9
9
9
9
9
9
9
9
9
9
9
9
9
9
9
9
9
9
9
9
9
9
9
9
9
9
9
9
9
9
9
9
9
9
9
9
9
9
9
9
9
9
9
9
9
9
9
9
9
9
9
9
9
9
9
9
9
9
9
9
9
9
9
9
9
9
9
9
9
9
9
9
9
9
9
9
9
9
9
9
9
9
9
9
9
9
9
9
9
9
9
9
9
9
9
9
9
9
9
9
9
9
9
9
9
9
9
9
9
9
9
9
9
9
9
9
9
9
9
9
9
9
9
9
9
9
9
9
9
9
9
9
9
9
9
9
9
9
9
9
9
9
9
9
9
9
9
9
9
9
9
9
9
9
9
9
9
9
9
9
9
9
9
9
9
9
9
9
9
9
9
9
9
9
9
9
9
9
9
9
9
9
9
9
9
9
9
9
9
9
9
9
9
9
9
9
9
9
9
9
9
9
9
9
9
9
9
9
9
9
9
9
9
9
9
9
9
9
9
9
9
9
9
9
9
9
9
9
9
9
9
9
9
9
9
9
9
9
9
9
9
9
9
9
9
9
9
9
9
9
9
9
9
9
9
9
9
9
9
9
9
9
9
9
9
9
9
9
9
9
9
9
9
9
9
9
9
9
9
9
9
9
9
9
9
9
9
9
9
9
9
9
9
9
9
9
9
9
9
9
9
9
9
9
9
9
9
9
9
9
9
9
9
9
9
9
9
9
9
9
9
9
9
9
9
9
9
9
9
9
9
9
9
9
9
9
9
9
9
9
9
9
9
9
9
9
9
9
9
9
9
9
9
9
9
9
9
9
9
9
9
9
9
9
9
9
9
9
9
9
9
9
9
9
9
9
9
9
9
9
9
9
9
9
9
9
9
9
9
9
9
9
9
9
9
9
9
9
9
9
9
9
9
9
9
9
9
9
9
9
9
9
9
9
9
9
9
9
9
9
9
9
9
9
9
9
9
9
9
9
9
9
9
9
9
9
9
9
9
9
9
POINT_DATA 625
VECTORS Displacement float
0 0 0
0 0 0
0 0 0
0 0 0
0 0 0
0 0 0
0 0 0
0 0 0
0 0 0
0 0 0
0 0 0
0 0 0
0 0 0
0 0 0
0 0 0
0 0 0
0 0 0
0 0 0
0 0 0
0 0 0
0 0 0
0 0 0
0 0 0
0 0 0
0 0 0
0 0 0
0 0 -2.64075e-07
0 0 -1.01595e-06
0 0 -2.09299e-06
0 0 -3.30039e-06
0 0 -4.51507e-06
0 0 -5.65613e-06
0 0 -6.6727e-06
0 0 -7.53244e-06
0 0 -8.21546e-06
0 0 -8.7098e-06
0 0 -9.00869e-06
0 0 -9.10866e-06
0 0 -9.00869e-06
0 0 -8.7098e-06
0 0 -8.21546e-06
0 0 -7.53244e-06
0 0 -6.6727e-06
0 0 -5.65613e-06
0 0 -4.51507e-06
0 0 -3.30039e-06
0 0 -2.09299e-06
0 0 -1.01595e-06
0 0 -2.64075e-07
0 0 0
0 0 0
0 0 -1.01595e-06
0 0 -3.77361e-06
0 0 -7.63303e-06
0 0 -1.19835e-05
0 0 -1.63875e-05
0 0 -2.05505e-05
0 0 -2.42776e-05
0 0 -2.74426e-05
0 0 -2.99646e-05
0 0 -3.1794e-05
0 0 -3.29017e-05
0 0 -3.32725e-05
0 0 -3.29017e-05
0 0 -3.1794e-05
0 0 -2.99646e-05
0 0 -2.74426e-05
0 0 -2.42776e-05
0 0 -2.05505e-05
0 0 -1.63875e-05
0 0 -1.19835e-05
0 0 -7.63303e-06
0 0 -3.77361e-06
0 0 -1.01595e-06
0 0 0
0 0 0
0 0 -2.09299e-06
0 0 -7.63303e-06
0 0 -1.52653e-05
0 0 -2.38887e-05
0 0 -3.26711e-05
0 0 -4.10231e-05
0 0 -4.85405e-05
0 0 -5.49517e-05
0 0 -6.00779e-05
0 0 -6.38054e-05
0 0 -6.6066e-05
0 0 -6.68233e-05
0 0 -6.6066e-05
0 0 -6.38054e-05
0 0 -6.00779e-05
0 0 -5.49517e-05
0 0 -4.85405e-05
0 0 -4.10231e-05
0 0 -3.26711e-05
0 0 -2.38887e-05
0 0 -1.52653e-05
0 0 -7.63303e-06
0 0 -2.09299e-06
0 0 0
0 0 0
0 0 -3.30039e-06
0 0 -1.19835e-05
0 0 -2.38887e-05
0 0 -3.73534e-05
0 0 -5.11229e-05
0 0 -6.42789e-05
0 0 -7.61718e-05
0 0 -8.63521e-05
0 0 -9.45156e-05
0 0 -0.000100465
0 0 -0.000104078
0 0 -0.000105289
0 0 -0.000104078
0 0 -0.000100465
0 0 -9.45156e-05
0 0 -8.63521e-05
0 0 -7.61718e-05
0 0 -6.42789e-05
0 0 -5.11229e-05
0 0 -3.73534e-05
0 0 -2.38887e-05
0 0 -1.19835e-05
0 0 -3.30039e-06
0 0 0
0 0 0
0 0 -4.51507e-06
0 0 -1.63875e-05
0 0 -3.26711e-05
0 0 -5.11229e-05
0 0 -7.0051e-05
0 0 -8.82003e-05
0 0 -0.000104663
0 0 -0.000118797
0 0 -0.000130159
0 0 -0.000138454
0 0 -0.000143498
0 0 -0.00014519
0 0 -0.000143498
0 0 -0.000138454
0 0 -0.000130159
0 0 -0.000118797
0 0 -0.000104663
0 0 -8.82003e-05
0 0 -7.0051e-05
0 0 -5.11229e-05
0 0 -3.26711e-05
0 0 -1.63875e-05
0 0 -4.51507e-06
0 0 0
0 0 0
0 0 -5.65613e-06
0 0 -2.05505e-05
0 0 -4.10231e-05
0 0 -6.42789e-05
0 0 -8.82003e-05
0 0 -0.000111202
0 0 -0.000132122
0 0 -0.000150126
0 0 -0.000164627
0 0 -0.00017523
0 0 -0.000181683
0 0 -0.000183849
0 0 -0.000181683
0 0 -0.00017523
0 0 -0.000164627
0 0 -0.000150126
0 0 -0.000132122
0 0 -0.000111202
0 0 -8.82003e-05
0 0 -6.42789e-05
0 0 -4.10231e-05
0 0 -2.05505e-05
0 0 -5.65613e-06
0 0 0
0 0 0
0 0 -6.6727e-06
0 0 -2.42776e-05
0 0 -4.85405e-05
0 0 -7.61718e-05
0 0 -0.000104663
0 0 -0.000132122
0 0 -0.00015715
0 0 -0.000178729
0 0 -0.000196136
0 0 -0.00020888
0 0 -0.000216642
0 0 -0.000219249
0 0 -0.000216642
0 0 -0.00020888
0 0 -0.000196136
0 0 -0.000178729
0 0 -0.00015715
0 0 -0.000132122
0 0 -0.000104663
0 0 -7.61718e-05
0 0 -4.85405e-05
0 0 -2.42776e-05
0 0 -6.6727e-06
0 0 0
0 0 0
0 0 -7.53244e-06
0 0 -2.74426e-05
0 0 -5.49517e-05
0 0 -8.63521e-05
0 0 -0.000118797
0 0 -0.000150126
0 0 -0.000178729
0 0 -0.000203427
0 0 -0.000223373
0 0 -0.000237989
0 0 -0.000246898
0 0 -0.00024989
0 0 -0.000246898
0 0 -0.000237989
0 0 -0.000223373
0 0 -0.000203427
0 0 -0.000178729
0 0 -0.000150126
0 0 -0.000118797
0 0 -8.63521e-05
0 0 -5.49517e-05
0 0 -2.74426e-05
0 0 -7.53244e-06
0 0 0
0 0 0
0 0 -8.21546e-06
0 0 -2.99646e-05
0 0 -6.00779e-05
0 0 -9.45156e-05
0 0 -0.000130159
0 0 -0.000164627
0 0 -0.000196136
0 0 -0.000223373
0 0 -0.000245391
0 0 -0.000261536
0 0 -0.000271381
0 0 -0.000274689
0 0 -0.000271381
0 0 -0.000261536
0 0 -0.000245391
0 0 -0.000223373
0 0 -0.000196136
0 0 -0.000164627
0 0 -0.000130159
0 0 -9.45156e-05
0 0 -6.00779e-05
0 0 -2.99646e-05
0 0 -8.21546e-06
0 0 0
0 0 0
0 0 -8.7098e-06
0 0 -3.1794e-05
0 0 -6.38054e-05
0 0 -0.000100465
0 0 -0.000138454
0 0 -0.00017523
0 0 -0.00020888
0 0 -0.000237989
0 0 -0.000261536
0 0 -0.00027881
0 0 -0.000289347
0 0 -0.000292888
0 0 -0.000289347
0 0 -0.00027881
0 0 -0.000261536
0 0 -0.000237989
0 0 -0.00020888
0 0 -0.00017523
0 0 -0.000138454
0 0 -0.000100465
0 0 -6.38054e-05
0 0 -3.1794e-05
0 0 -8.7098e-06
0 0 0
0 0 0
0 0 -9.00869e-06
0 0 -3.29017e-05
0 0 -6.6066e-05
0 0 -0.000104078
0 0 -0.000143498
0 0 -0.000181683
0 0 -0.000216642
0 0 -0.000246898
0 0 -0.000271381
0 0 -0.000289347
0 0 -0.000300309
0 0 -0.000303992
0 0 -0.000300309
0 0 -0.000289347
0 0 -0.000271381
0 0 -0.000246898
0 0 -0.000216642
0 0 -0.000181683
0 0 -0.000143498
0 0 -0.000104078
0 0 -6.6066e-05
0 0 -3.29017e-05
0 0 -9.00869e-06
0 0 0
0 0 0
0 0 -9.10866e-06
0 0 -3.32725e-05
0 0 -6.68233e-05
0 0 -0.000105289
0 0 -0.00014519
0 0 -0.000183849
0 0 -0.000219249
0 0 -0.00024989
0 0 -0.000274689
0 0 -0.000292888
0 0 -0.000303992
0 0 -0.000307724
0 0 -0.000303992
0 0 -0.000292888
0 0 -0.000274689
0 0 -0.00024989
0 0 -0.000219249
0 0 -0.000183849
0 0 -0.00014519
0 0 -0.000105289
0 0 -6.68233e-05
0 0 -3.32725e-05
0 0 -9.10866e-06
0 0 0
0 0 0
0 0 -9.00869e-06
0 0 -3.29017e-05
0 0 -6.6066e-05
0 0 -0.000104078
0 0 -0.000143498
0 0 -0.000181683
0 0 -0.000216642
0 0 -0.000246898
0 0 -0.000271381
0 0 -0.000289347
0 0 -0.000300309
0 0 -0.000303992
0 0 -0.000300309
0 0 -0.000289347
0 0 -0.000271381
0 0 -0.000246898
0 0 -0.000216642
0 0 -0.000181683
0 0 -0.000143498
0 0 -0.000104078
0 0 -6.6066e-05
0 0 -3.29017e-05
0 0 -9.00869e-06
0 0 0
0 0 0
0 0 -8.7098e-06
0 0 -3.1794e-05
0 0 -6.38054e-05
0 0 -0.000100465
0 0 -0.000138454
0 0 -0.00017523
0 0 -0.00020888
0 0 -0.000237989
0 0 -0.000261536
0 0 -0.00027881
0 0 -0.000289347
0 0 -0.000292888
0 0 -0.000289347
0 0 -0.00027881
0 0 -0.000261536
0 0 -0.000237989
0 0 -0.00020888
0 0 -0.00017523
0 0 -0.000138454
0 0 -0.000100465
0 0 -6.38054e-05
0 0 -3.1794e-05
0 0 -8.7098e-06
0 0 0
0 0 0
0 0 -8.21546e-06
0 0 -2.99646e-05
0 0 -6.00779e-05
0 0 -9.45156e-05
0 0 -0.000130159
0 0 -0.000164627
0 0 -0.000196136
0 0 -0.000223373
0 0 -0.000245391
0 0 -0.000261536
0 0 -0.000271381
0 0 -0.000274689
0 0 -0.000271381
0 0 -0.000261536
0 0 -0.000245391
0 0 -0.000223373
0 0 -0.000196136
0 0 -0.000164627
0 0 -0.000130159
0 0 -9.45156e-05
0 0 -6.00779e-05
0 0 -2.99646e-05
0 0 -8.21546e-06
0 0 0
0 0 0
0 0 -7.53244e-06
0 0 -2.74426e-05
0 0 -5.49517e-05
0 0 -8.63521e-05
0 0 -0.000118797
0 0 -0.000150126
0 0 -0.000178729
0 0 -0.000203427
0 0 -0.000223373
0 0 -0.000237989
0 0 -0.000246898
0 0 -0.00024989
0 0 -0.000246898
0 0 -0.000237989
0 0 -0.000223373
0 0 -0.000203427
0 0 -0.000178729
0 0 -0.000150126
0 0 -0.000118797
0 0 -8.63521e-05
0 0 -5.49517e-05
0 0 -2.74426e-05
0 0 -7.53244e-06
0 0 0
0 0 0
0 0 -6.6727e-06
0 0 -2.42776e-05
0 0 -4.85405e-05
0 0 -7.61718e-05
0 0 -0.000104663
0 0 -0.000132122
0 0 -0.00015715
0 0 -0.000178729
0 0 -0.000196136
0 0 -0.00020888
0 0 -0.000216642
0 0 -0.000219249
0 0 -0.000216642
0 0 -0.00020888
0 0 -0.000196136
0 0 -0.000178729
0 0 -0.00015715
0 0 -0.000132122
0 0 -0.000104663
0 0 -7.61718e-05
0 0 -4.85405e-05
0 0 -2.42776e-05
0 0 -6.6727e-06
0 0 0
0 0 0
0 0 -5.65613e-06
0 0 -2.05505e-05
0 0 -4.10231e-05
0 0 -6.42789e-05
0 0 -8.82003e-05
0 0 -0.000111202
0 0 -0.000132122
0 0 -0.000150126
0 0 -0.000164627
0 0 -0.00017523
0 0 -0.000181683
0 0 -0.000183849
0 0 -0.000181683
0 0 -0.00017523
0 0 -0.000164627
0 0 -0.000150126
0 0 -0.000132122
0 0 -0.000111202
0 0 -8.82003e-05
0 0 -6.42789e-05
0 0 -4.10231e-05
0 0 -2.05505e-05
0 0 -5.65613e-06
0 0 0
0 0 0
0 0 -4.51507e-06
0 0 -1.63875e-05
0 0 -3.26711e-05
0 0 -5.11229e-05
0 0 -7.0051e-05
0 0 -8.82003e-05
0 0 -0.000104663
0 0 -0.000118797
0 0 -0.000130159
0 0 -0.000138454
0 0 -0.000143498
0 0 -0.00014519
0 0 -0.000143498
0 0 -0.000138454
0 0 -0.000130159
0 0 -0.000118797
0 0 -0.000104663
0 0 -8.82003e-05
0 0 -7.0051e-05
0 0 -5.11229e-05
0 0 -3.26711e-05
0 0 -1.63875e-05
0 0 -4.51507e-06
0 0 0
0 0 0
0 0 -3.30039e-06
0 0 -1.19835e-05
0 0 -2.38887e-05
0 0 -3.73534e-05
0 0 -5.11229e-05
0 0 -6.42789e-05
0 0 -7.61718e-05
0 0 -8.63521e-05
0 0 -9.45156e-05
0 0 -0.000100465
0 0 -0.000104078
0 0 -0.000105289
0 0 -0.000104078
0 0 -0.000100465
0 0 -9.45156e-05
0 0 -8.63521e-05
0 0 -7.61718e-05
0 0 -6.42789e-05
0 0 -5.11229e-05
0 0 -3.73534e-05
0 0 -2.38887e-05
0 0 -1.19835e-05
0 0 -3.30039e-06
0 0 0
0 0 0
0 0 -2.09299e-06
0 0 -7.63303e-06
0 0 -1.52653e-05
0 0 -2.38887e-05
0 0 -3.26711e-05
0 0 -4.10231e-05
0 0 -4.85405e-05
0 0 -5.49517e-05
0 0 -6.00779e-05
0 0 -6.38054e-05
0 0 -6.6066e-05
0 0 -6.68233e-05
0 0 -6.6066e-05
0 0 -6.38054e-05
0 0 -6.00779e-05
0 0 -5.49517e-05
0 0 -4.85405e-05
0 0 -4.10231e-05
0 0 -3.26711e-05
0 0 -2.38887e-05
0 0 -1.52653e-05
0 0 -7.63303e-06
0 0 -2.09299e-06
0 0 0
0 0 0
0 0 -1.01595e-06
0 0 -3.77361e-06
0 0 -7.63303e-06
0 0 -1.19835e-05
0 0 -1.63875e-05
0 0 -2.05505e-05
0 0 -2.42776e-05
0 0 -2.74426e-05
0 0 -2.99646e-05
0 0 -3.1794e-05
0 0 -3.29017e-05
0 0 -3.32725e-05
0 0 -3.29017e-05
0 0 -3.1794e-05
0 0 -2.99646e-05
0 0 -2.74426e-05
0 0 -2.42776e-05
0 0 -2.05505e-05
0 0 -1.63875e-05
0 0 -1.19835e-05
0 0 -7.63303e-06
0 0 -3.77361e-06
0 0 -1.01595e-06
0 0 0
0 0 0
0 0 -2.64075e-07
0 0 -1.01595e-06
0 0 -2.09299e-06
0 0 -3.30039e-06
0 0 -4.51507e-06
0 0 -5.65613e-06
0 0 -6.6727e-06
0 0 -7.53244e-06
0 0 -8.21546e-06
0 0 -8.7098e-06
0 0 -9.00869e-06
0 0 -9.10866e-06
0 0 -9.00869e-06
0 0 -8.7098e-06
0 0 -8.21546e-06
0 0 -7.53244e-06
0 0 -6.6727e-06
0 0 -5.65613e-06
0 0 -4.51507e-06
0 0 -3.30039e-06
0 0 -2.09299e-06
0 0 -1.01595e-06
0 0 -2.64075e-07
0 0 0
0 0 0
0 0 0
0 0 0
0 0 0
0 0 0
0 0 0
0 0 0
0 0 0
0 0 0
0 0 0
0 0 0
0 0 0
0 0 0
0 0 0
0 0 0
0 0 0
0 0 0
0 0 0
0 0 0
0 0 0
0 0 0
0 0 0
0 0 0
0 0 0
0 0 0
CELL_DATA 576
SCALARS Stress float 1
LOOKUP_TABLE default
0
0
0
0
0
0
0
0
0
0
0
0
0
0
0
0
0
0
0
0
0
0
0
0
0.0203291
0.031721
0.0346233
0.0345887
0.0323111
0.0287646
0.024349
0.0194334
0.0142032
0.00880275
0.00331379
-0.0022022
-0.00769513
-0.0131084
-0.0183592
-0.0233256
-0.027804
-0.0315068
-0.0339319
-0.0344282
-0.0317524
-0.0245554
-0.00959011
0.00581935
0.0781479
0.111628
0.124639
0.125193
0.117956
0.105492
0.0897228
0.07182
0.052628
0.032673
0.0123264
-0.00814742
-0.0285195
-0.0485339
-0.0678469
-0.0859459
-0.102077
-0.115067
-0.123246
-0.124017
-0.113845
-0.0874191
-0.0398885
0.0223258
0.160985
0.219192
0.246173
0.249438
0.236588
0.212863
0.181845
0.14609
0.107321
0.0667479
0.0252091
-0.0166474
-0.0582559
-0.098998
-0.138065
-0.174336
-0.206168
-0.231207
-0.246042
-0.245948
-0.224382
-0.173187
-0.0852
0.0459846
0.253838
0.341523
0.383436
0.390662
0.372586
0.336814
0.288893
0.23281
0.171436
0.106798
0.0403893
-0.0266173
-0.0931706
-0.158136
-0.220093
-0.277117
-0.326533
-0.364568
-0.386052
-0.383966
-0.349161
-0.270707
-0.13556
0.0724962
0.347272
0.466772
0.524921
0.53659
0.513856
0.466269
0.401214
0.324171
0.23918
0.149205
0.0564775
-0.0371894
-0.130155
-0.220667
-0.306581
-0.385096
-0.452407
-0.503339
-0.530958
-0.526129
-0.477257
-0.369792
-0.185544
0.0991885
0.43503
0.586348
0.661144
0.677844
0.65111
0.592553
0.511186
0.413898
0.305881
0.191035
0.0723754
-0.0475999
-0.166606
-0.282222
-0.391543
-0.490869
-0.575294
-0.638294
-0.671296
-0.663226
-0.599965
-0.463736
-0.232004
0.12425
0.513215
0.694348
0.785153
0.807104
0.777203
0.708921
0.612808
0.497006
0.367775
0.229901
0.0871576
-0.0572798
-0.200482
-0.339363
-0.47028
-0.588674
-0.688621
-0.76236
-0.799855
-0.788216
-0.711115
-0.547989
-0.272935
0.146579
0.579345
0.786625
0.891913
0.918927
0.886674
0.81023
0.701472
0.569653
0.421956
0.263961
0.100123
-0.0657575
-0.230159
-0.389383
-0.539116
-0.674037
-0.787319
-0.870137
-0.911167
-0.895981
-0.806382
-0.619595
-0.307318
0.165471
0.631887
0.860567
0.977894
1.00937
0.975476
0.892598
0.773689
0.628903
0.466193
0.291787
0.110718
-0.0726917
-0.254415
-0.430237
-0.595283
-0.743595
-0.867608
-0.957621
-1.00127
-0.982895
-0.882834
-0.676697
-0.334417
0.180484
0.66989
0.914341
1.04075
1.0757
1.04077
0.953269
0.826957
0.672659
0.49889
0.312373
0.118567
-0.0778028
-0.272331
-0.46041
-0.636741
-0.794891
-0.926746
-1.02195
-1.06739
-1.0465
-0.938588
-0.718132
-0.353998
0.191325
0.6929
0.947033
1.07901
1.11616
1.08065
0.99037
0.859558
0.699451
0.518917
0.324979
0.123366
-0.0809539
-0.283333
-0.478922
-0.662158
-0.826315
-0.962938
-1.06128
-1.10775
-1.08524
-0.972447
-0.743223
-0.365745
0.197912
0.700582
0.957949
1.09185
1.12974
1.09406
1.00286
0.870538
0.70848
0.52567
0.329234
0.12499
-0.0820063
-0.28703
-0.485148
-0.670708
-0.836885
-0.975108
-1.0745
-1.1213
-1.09823
-0.983807
-0.751619
-0.369708
0.200101
0.692886
0.947024
1.07901
1.11615
1.08065
0.990372
0.859561
0.699455
0.518922
0.324984
0.123371
-0.0809484
-0.283328
-0.478917
-0.662153
-0.826311
-0.962934
-1.06128
-1.10775
-1.08524
-0.972449
-0.743228
-0.365754
0.197899
0.669903
0.91435
1.04076
1.0757
1.04077
0.953267
0.826954
0.672655
0.498885
0.312368
0.118562
-0.077808
-0.272336
-0.460415
-0.636746
-0.794896
-0.926749
-1.02196
-1.0674
-1.0465
-0.938586
-0.718127
-0.35399
0.191338
0.631887
0.860567
0.977894
1.00937
0.975476
0.892598
0.773689
0.628903
0.466193
0.291787
0.110718
-0.0726917
-0.254415
-0.430237
-0.595283
-0.743595
-0.867608
-0.957621
-1.00127
-0.982895
-0.882834
-0.676697
-0.334417
0.180484
0.579334
0.786617
0.891909
0.918926
0.886674
0.810232
0.701475
0.569657
0.42196
0.263965
0.100127
-0.065753
-0.230154
-0.389378
-0.539112
-0.674033
-0.787315
-0.870134
-0.911165
-0.895981
-0.806384
-0.619599
-0.307325
0.16546
0.513225
0.694354
0.785156
0.807105
0.777203
0.708919
0.612806
0.497004
0.367772
0.229898
0.0871538
-0.0572836
-0.200486
-0.339367
-0.470283
-0.588678
-0.688623
-0.762362
-0.799857
-0.788217
-0.711113
-0.547985
-0.272929
0.146589
0.43503
0.586348
0.661144
0.677844
0.65111
0.592553
0.511186
0.413898
0.305881
0.191035
0.0723754
-0.0475999
-0.166606
-0.282222
-0.391543
-0.490869
-0.575294
-0.638294
-0.671296
-0.663226
-0.599965
-0.463736
-0.232004
0.12425
0.347265
0.466768
0.524919
0.536589
0.513856
0.46627
0.401215
0.324173
0.239182
0.149207
0.0564799
-0.0371869
-0.130152
-0.220665
-0.306578
-0.385094
-0.452405
-0.503338
-0.530957
-0.526128
-0.477258
-0.369795
-0.185548
0.0991818
0.253843
0.341526
0.383437
0.390662
0.372585
0.336813
0.288892
0.232808
0.171434
0.106797
0.0403875
-0.0266191
-0.0931724
-0.158138
-0.220094
-0.277119
-0.326534
-0.36457
-0.386053
-0.383966
-0.349161
-0.270705
-0.135557
0.0725011
0.160985
0.219192
0.246173
0.249438
0.236588
0.212863
0.181845
0.14609
0.107321
0.0667479
0.0252091
-0.0166474
-0.0582559
-0.098998
-0.138065
-0.174336
-0.206168
-0.231207
-0.246042
-0.245948
-0.224382
-0.173187
-0.0852
0.0459846
0.0781464
0.111627
0.124639
0.125193
0.117956
0.105492
0.0897232
0.0718205
0.0526285
0.0326736
0.012327
-0.00814687
-0.0285189
-0.0485334
-0.0678463
-0.0859454
-0.102076
-0.115067
-0.123245
-0.124017
-0.113845
-0.0874197
-0.0398896
0.0223243
0.0203295
0.0317213
0.0346235
0.0345887
0.0323111
0.0287645
0.0243489
0.0194333
0.0142031
0.00880261
0.00331364
-0.00220235
-0.00769528
-0.0131086
-0.0183593
-0.0233258
-0.0278041
-0.0315069
-0.033932
-0.0344283
-0.0317524
-0.0245552
-0.00958978
0.00581974
